Ca12 Mn2 N10                            
   1.00000000000000     
     6.1822522954208878   -0.0000000000000000   -0.0000000000000000
    -3.0911261477104439    5.3539875404809019    0.0000000000000000
    -0.0000000000000000    0.0000000000000000   12.2691086896434971
   Ca   Mn   N 
    12     2    10
Direct
  0.3909178870798212  0.3909179380201505  0.3815889197412961
  0.6090821723427825  0.6090821039938933  0.6184110802668397
  0.6090820869648912 -0.0000000000000000  0.3815889197412961
  0.3909179130028858 -0.0000000000000000  0.6184110802668397
  0.0000000145404755  0.6090821927480919  0.3815889197412961
  0.0000000095296997  0.3909178935500163  0.6184110802668397
  0.6090821723427825  0.6090821039938933  0.8815888809496062
  0.3909178870798212  0.3909179380201505  0.1184110802627682
  0.3909179130028858 -0.0000000000000000  0.8815888809496062
  0.6090820869648912 -0.0000000000000000  0.1184110802627682
  0.0000000095296997  0.3909178935500163  0.8815888809496062
  0.0000000145404755  0.6090821927480919  0.1184110802627682
 -0.0000000000000000 -0.0000000000000000  0.2500000000020322
 -0.0000000000000000 -0.0000000000000000  0.7500000193633127
  0.0000000099207257  0.2878603282593667  0.2500000000020322
  0.0000000287017058  0.7121396914265751  0.7500000193633127
  0.7121396627248694  0.7121396914265751  0.2500000000020322
  0.2878603183386411  0.2878603282593667  0.7500000193633127
  0.2878603084179225 -0.0000000000000000  0.2500000000020322
  0.7121396340231636 -0.0000000000000000  0.7500000193633127
  0.3333333547497048  0.6666667094994025  0.0000000000000000
  0.6666666278095121  0.3333333325146342  0.0000000000000000
  0.6666666278095121  0.3333333325146342  0.5000000000040643
  0.3333333547497048  0.6666667094994025  0.5000000000040643
 
  0.00000000E+00  0.00000000E+00  0.00000000E+00
  0.00000000E+00  0.00000000E+00  0.00000000E+00
  0.00000000E+00  0.00000000E+00  0.00000000E+00
  0.00000000E+00  0.00000000E+00  0.00000000E+00
  0.00000000E+00  0.00000000E+00  0.00000000E+00
  0.00000000E+00  0.00000000E+00  0.00000000E+00
  0.00000000E+00  0.00000000E+00  0.00000000E+00
  0.00000000E+00  0.00000000E+00  0.00000000E+00
  0.00000000E+00  0.00000000E+00  0.00000000E+00
  0.00000000E+00  0.00000000E+00  0.00000000E+00
  0.00000000E+00  0.00000000E+00  0.00000000E+00
  0.00000000E+00  0.00000000E+00  0.00000000E+00
  0.00000000E+00  0.00000000E+00  0.00000000E+00
  0.00000000E+00  0.00000000E+00  0.00000000E+00
  0.00000000E+00  0.00000000E+00  0.00000000E+00
  0.00000000E+00  0.00000000E+00  0.00000000E+00
  0.00000000E+00  0.00000000E+00  0.00000000E+00
  0.00000000E+00  0.00000000E+00  0.00000000E+00
  0.00000000E+00  0.00000000E+00  0.00000000E+00
  0.00000000E+00  0.00000000E+00  0.00000000E+00
  0.00000000E+00  0.00000000E+00  0.00000000E+00
  0.00000000E+00  0.00000000E+00  0.00000000E+00
  0.00000000E+00  0.00000000E+00  0.00000000E+00
  0.00000000E+00  0.00000000E+00  0.00000000E+00
