Ca12 Fe2 N10                            
   1.00000000000000     
     6.2278353937632192   -0.0000000000000000   -0.0000000000000000
    -3.1139176968816096    5.3934636615521550    0.0000000000000000
     0.0000000000000000   -0.0000000000000000   12.4126985923917381
   Ca   Fe   N 
    12     2    10
Direct
  0.3882815977016192  0.3882815991681652  0.3814481922214538
  0.6117183883896915  0.6117183730466011  0.6185518077458044
  0.6117184038935208 -0.0000000000000000  0.3814481922214538
  0.3882815960743271 -0.0000000000000000  0.6185518077458044
  0.9999999846569096  0.6117183730466011  0.3814481922214538
  0.0000000014665460  0.3882815991681652  0.6185518077458044
  0.6117183883896915  0.6117183730466011  0.8814481532034418
  0.3882815977016192  0.3882815991681652  0.1185518175432792
  0.3882815960743271 -0.0000000000000000  0.8814481532034418
  0.6117184038935208 -0.0000000000000000  0.1185518175432792
  0.0000000014665460  0.3882815991681652  0.8814481532034418
  0.9999999846569096  0.6117183730466011  0.1185518175432792
 -0.0000000000000000 -0.0000000000000000  0.2499999999713509
 -0.0000000000000000 -0.0000000000000000  0.7499999999959073
  0.9999999980982395  0.2837639680994282  0.2499999999713509
  0.9999999990687840  0.7162360262024668  0.7499999999959073
  0.7162360271336828  0.7162360262024668  0.2499999999713509
  0.2837639700011887  0.2837639680994282  0.7499999999959073
  0.2837639717422102 -0.0000000000000000  0.2499999999713509
  0.7162360282256449 -0.0000000000000000  0.7499999999959073
  0.3333333388272735  0.6666666776545469  0.0000000000000000
  0.6666666090080042  0.3333332945602123  0.0000000000000000
  0.6666666090080042  0.3333332945602123  0.5000000000245564
  0.3333333388272735  0.6666666776545469  0.5000000000245564
 
  0.00000000E+00  0.00000000E+00  0.00000000E+00
  0.00000000E+00  0.00000000E+00  0.00000000E+00
  0.00000000E+00  0.00000000E+00  0.00000000E+00
  0.00000000E+00  0.00000000E+00  0.00000000E+00
  0.00000000E+00  0.00000000E+00  0.00000000E+00
  0.00000000E+00  0.00000000E+00  0.00000000E+00
  0.00000000E+00  0.00000000E+00  0.00000000E+00
  0.00000000E+00  0.00000000E+00  0.00000000E+00
  0.00000000E+00  0.00000000E+00  0.00000000E+00
  0.00000000E+00  0.00000000E+00  0.00000000E+00
  0.00000000E+00  0.00000000E+00  0.00000000E+00
  0.00000000E+00  0.00000000E+00  0.00000000E+00
  0.00000000E+00  0.00000000E+00  0.00000000E+00
  0.00000000E+00  0.00000000E+00  0.00000000E+00
  0.00000000E+00  0.00000000E+00  0.00000000E+00
  0.00000000E+00  0.00000000E+00  0.00000000E+00
  0.00000000E+00  0.00000000E+00  0.00000000E+00
  0.00000000E+00  0.00000000E+00  0.00000000E+00
  0.00000000E+00  0.00000000E+00  0.00000000E+00
  0.00000000E+00  0.00000000E+00  0.00000000E+00
  0.00000000E+00  0.00000000E+00  0.00000000E+00
  0.00000000E+00  0.00000000E+00  0.00000000E+00
  0.00000000E+00  0.00000000E+00  0.00000000E+00
  0.00000000E+00  0.00000000E+00  0.00000000E+00
