Ca12 Fe2 N10                            
   1.00000000000000     
     6.2325267520633441    0.0000000000000000   -0.0000000000000000
    -3.1162633760316720    5.3975264970182391   -0.0000000000000000
     0.0000000000000000    0.0000000000000000   12.4495804407535449
   Ca   Fe   N 
    12     2    10
Direct
  0.3880622109146615  0.3880622123812075  0.3818151569488447
  0.6119377751766492  0.6119377598335588  0.6181848430184137
  0.6119377906804786  0.0000000000000000  0.3818151569488447
  0.3880622092873695  0.0000000000000000  0.6181848430184137
  0.9999999846569096  0.6119377598335588  0.3818151569488447
  0.0000000014665460  0.3880622123812075  0.6181848430184137
  0.6119377751766492  0.6119377598335588  0.8818151179308326
  0.3880622109146615  0.3880622123812075  0.1181848528158884
  0.3880622092873695  0.0000000000000000  0.8818151179308326
  0.6119377906804786  0.0000000000000000  0.1181848528158884
  0.0000000014665460  0.3880622123812075  0.8818151179308326
  0.9999999846569096  0.6119377598335588  0.1181848528158884
  0.0000000000000000  0.0000000000000000  0.2499999999713509
  0.0000000000000000  0.0000000000000000  0.7499999999959073
  0.9999999980982395  0.2840213629136063  0.2499999999713509
  0.9999999990687840  0.7159786313882888  0.7499999999959073
  0.7159786323195048  0.7159786313882888  0.2499999999713509
  0.2840213648153668  0.2840213629136063  0.7499999999959073
  0.2840213665563884  0.0000000000000000  0.2499999999713509
  0.7159786334114668  0.0000000000000000  0.7499999999959073
  0.3333333388272735  0.6666666776545469 -0.0000000000000000
  0.6666666090080042  0.3333332945602123  0.0000000000000000
  0.6666666090080042  0.3333332945602123  0.5000000000245564
  0.3333333388272735  0.6666666776545469  0.5000000000245564
 
  0.00000000E+00  0.00000000E+00  0.00000000E+00
  0.00000000E+00  0.00000000E+00  0.00000000E+00
  0.00000000E+00  0.00000000E+00  0.00000000E+00
  0.00000000E+00  0.00000000E+00  0.00000000E+00
  0.00000000E+00  0.00000000E+00  0.00000000E+00
  0.00000000E+00  0.00000000E+00  0.00000000E+00
  0.00000000E+00  0.00000000E+00  0.00000000E+00
  0.00000000E+00  0.00000000E+00  0.00000000E+00
  0.00000000E+00  0.00000000E+00  0.00000000E+00
  0.00000000E+00  0.00000000E+00  0.00000000E+00
  0.00000000E+00  0.00000000E+00  0.00000000E+00
  0.00000000E+00  0.00000000E+00  0.00000000E+00
  0.00000000E+00  0.00000000E+00  0.00000000E+00
  0.00000000E+00  0.00000000E+00  0.00000000E+00
  0.00000000E+00  0.00000000E+00  0.00000000E+00
  0.00000000E+00  0.00000000E+00  0.00000000E+00
  0.00000000E+00  0.00000000E+00  0.00000000E+00
  0.00000000E+00  0.00000000E+00  0.00000000E+00
  0.00000000E+00  0.00000000E+00  0.00000000E+00
  0.00000000E+00  0.00000000E+00  0.00000000E+00
  0.00000000E+00  0.00000000E+00  0.00000000E+00
  0.00000000E+00  0.00000000E+00  0.00000000E+00
  0.00000000E+00  0.00000000E+00  0.00000000E+00
  0.00000000E+00  0.00000000E+00  0.00000000E+00
