Ca12 Fe2 N10                            
   1.00000000000000     
     6.2401832694543149    0.0000000000000000    0.0000000000000000
    -3.1200916347271574    5.4041572355832201    0.0000000000000000
     0.0000000000000000    0.0000000000000000   12.2442504173587743
  Ca             Fe             N            
  12             2              10
Direct
  0.3970166421988992  0.3970166436654452  0.3797399857093566
  0.6029833438924115  0.6029833285493211  0.6202600142579016
  0.6029833593962408  0.0000000000000000  0.3797399857093566
  0.3970166405716071  0.0000000000000000  0.6202600142579016
  0.9999999846569096  0.6029833285493211  0.3797399857093566
  0.0000000014665460  0.3970166436654452  0.6202600142579016
  0.6029833438924115  0.6029833285493211  0.8797399466913447
  0.3970166421988992  0.3970166436654452  0.1202600240553764
  0.3970166405716071  0.0000000000000000  0.8797399466913447
  0.6029833593962408  0.0000000000000000  0.1202600240553764
  0.0000000014665460  0.3970166436654452  0.8797399466913447
  0.9999999846569096  0.6029833285493211  0.1202600240553764
  0.0000000000000000  0.0000000000000000  0.2499999999713509
  0.0000000000000000  0.0000000000000000  0.7499999999959073
  0.9999999980982395  0.2880012569006780  0.2499999999713509
  0.9999999990687840  0.7119987374012169  0.7499999999959073
  0.7119987383324329  0.7119987374012169  0.2499999999713509
  0.2880012588024385  0.2880012569006780  0.7499999999959073
  0.2880012605434601  0.0000000000000000  0.2499999999713509
  0.7119987394243950  0.0000000000000000  0.7499999999959073
  0.3333333388272735  0.6666666776545469  0.0000000000000000
  0.6666666090080042  0.3333332945602123  0.0000000000000000
  0.6666666090080042  0.3333332945602123  0.5000000000245564
  0.3333333388272735  0.6666666776545469  0.5000000000245564
 
