Ca12 Mn2 N10                            
   1.00000000000000     
     6.2249833547780220    0.0000000000000000    0.0000000000000000
    -3.1124916773890110    5.3909937234156891    0.0000000000000000
     0.0000000000000000    0.0000000000000000   12.3330774115024617
  Ca             Mn             N            
  12              2             10
Direct
  0.3944274936364636  0.3944275445767929  0.3816180807719078
  0.6055725754327312  0.6055725070838420  0.6183819091607532
  0.6055724804082487  0.0000000000000000  0.3816180807719078
  0.3944275099129371  0.0000000000000000  0.6183819091607532
  0.0000000145404755  0.6055725861914496  0.3816180807719078
  0.0000000095296997  0.3944274904600675  0.6183819091607532
  0.6055725754327312  0.6055725070838420  0.8816180520556927
  0.3944274936364636  0.3944275445767929  0.1183819192321565
  0.3944275099129371  0.0000000000000000  0.8816180520556927
  0.6055724804082487  0.0000000000000000  0.1183819192321565
  0.0000000095296997  0.3944274904600675  0.8816180520556927
  0.0000000145404755  0.6055725861914496  0.1183819192321565
  0.0000000000000000  0.0000000000000000  0.2500000000020322
  0.0000000000000000  0.0000000000000000  0.7500000193633127
  0.0000000099207256  0.2865809731854654  0.2500000000020322
  0.0000000287017059  0.7134190708390449  0.7500000193633127
  0.7134190177987705  0.7134190465004764  0.2500000000020322
  0.2865809389261713  0.2865809488468969  0.7500000193633127
  0.2865809533440213  0.0000000000000000  0.2500000000020322
  0.7134190134356331  0.0000000000000000  0.7500000193633127
  0.3333333547497048  0.6666667094994025  0.9999999944001274
  0.6666666278095121  0.3333333325146342  0.9999999944001274
  0.6666666278095121  0.3333333325146342  0.5000000056039369
  0.3333333547497048  0.6666667094994025  0.5000000056039369
 
