 PAW_PBE Ca_pv 06Sep2000
 8.00000000000000000
 parameters from PSCTR are:
   VRHFIN =Ca: p6s2d0.01
   LEXCH  = PE
   EATOM  =   612.5326 eV,   45.0199 Ry

   TITEL  = PAW_PBE Ca_pv 06Sep2000
   LULTRA =        F    use ultrasoft PP ?
   IUNSCR =        1    unscreen: 0-lin 1-nonlin 2-no
   RPACOR =    2.300    partial core radius
   POMASS =   40.078; ZVAL   =    8.000    mass and valenz
   RCORE  =    3.000    outmost cutoff radius
   RWIGS  =    3.300; RWIGS  =    1.746    wigner-seitz radius (au A)
   ENMAX  =  119.554; ENMIN  =   89.665 eV
   RCLOC  =    1.709    cutoff for local pot
   LCOR   =        T    correct aug charges
   LPAW   =        T    paw PP
   EAUG   =  325.799
   DEXC   =    -.003
   RMAX   =    4.217    core radius for proj-oper
   RAUG   =    1.300    factor for augmentation sphere
   RDEP   =    3.090    radius for radial grids
   QCUT   =   -2.964; QGAM   =    5.929    optimization parameters
 
   Description
     l     E      TYP  RCUT    TYP  RCUT
     1   .000     23  3.000
     1   .100     23  3.000
     0   .000     23  3.000
     0   .000     23  3.000
     2   .000     23  3.000
     2   .000     23  3.000
   Error from kinetic energy argument (eV)
   NDATA  =      100
   STEP   =   20.000   1.050
  27.9      26.7      26.1      24.8      24.2      22.8      21.4      20.8
  19.4      18.0      17.3      16.0      14.7      13.4      12.2      11.0
  9.92      8.87      7.89      6.55      5.74      5.00      4.01      3.43
  2.92      2.25      1.71      1.41      1.03      .739      .516      .351
  .232      .148      .925E-01  .568E-01  .304E-01  .209E-01  .156E-01  .146E-01
  .144E-01  .142E-01  .132E-01  .115E-01  .934E-02  .713E-02  .515E-02  .326E-02
  .228E-02  .163E-02  .140E-02  .136E-02  .136E-02  .129E-02  .110E-02  .882E-03
  .659E-03  .443E-03  .315E-03  .263E-03  .254E-03  .252E-03  .234E-03  .191E-03
  .146E-03  .102E-03  .767E-04  .688E-04  .681E-04  .646E-04  .534E-04  .391E-04
  .283E-04  .238E-04  .232E-04  .223E-04  .187E-04  .137E-04  .101E-04  .930E-05
  .917E-05  .801E-05  .603E-05  .452E-05  .421E-05  .407E-05  .336E-05  .244E-05
  .211E-05  .207E-05  .175E-05  .131E-05  .113E-05  .110E-05  .895E-06  .684E-06
  .647E-06  .590E-06  .439E-06  .391E-06
END of PSCTR-controll parameters
 local part
 62.3609576231044684
   .92374799E+02   .92365756E+02   .92338687E+02   .92293593E+02   .92230505E+02
   .92149469E+02   .92050540E+02   .91933786E+02   .91799287E+02   .91647136E+02
   .91477434E+02   .91290294E+02   .91085841E+02   .90864209E+02   .90625540E+02
   .90369988E+02   .90097716E+02   .89808894E+02   .89503704E+02   .89182335E+02
   .88844983E+02   .88491856E+02   .88123168E+02   .87739140E+02   .87340005E+02
   .86926001E+02   .86497374E+02   .86054380E+02   .85597280E+02   .85126344E+02
   .84641848E+02   .84144076E+02   .83633319E+02   .83109872E+02   .82574039E+02
   .82026129E+02   .81466455E+02   .80895336E+02   .80313095E+02   .79720062E+02
   .79116568E+02   .78502949E+02   .77879544E+02   .77246696E+02   .76604750E+02
   .75954055E+02   .75294960E+02   .74627819E+02   .73952986E+02   .73270818E+02
   .72581672E+02   .71885908E+02   .71183886E+02   .70475967E+02   .69762514E+02
   .69043888E+02   .68320454E+02   .67592573E+02   .66860608E+02   .66124922E+02
   .65385877E+02   .64643832E+02   .63899147E+02   .63152181E+02   .62403290E+02
   .61652829E+02   .60901150E+02   .60148604E+02   .59395538E+02   .58642298E+02
   .57889226E+02   .57136662E+02   .56384940E+02   .55634393E+02   .54885350E+02
   .54138135E+02   .53393069E+02   .52650467E+02   .51910640E+02   .51173894E+02
   .50440531E+02   .49710846E+02   .48985128E+02   .48263661E+02   .47546723E+02
   .46834584E+02   .46127508E+02   .45425752E+02   .44729565E+02   .44039189E+02
   .43354859E+02   .42676798E+02   .42005226E+02   .41340350E+02   .40682371E+02
   .40031480E+02   .39387859E+02   .38751679E+02   .38123105E+02   .37502288E+02
   .36889373E+02   .36284493E+02   .35687771E+02   .35099320E+02   .34519243E+02
   .33947634E+02   .33384573E+02   .32830132E+02   .32284373E+02   .31747347E+02
   .31219093E+02   .30699643E+02   .30189015E+02   .29687220E+02   .29194258E+02
   .28710117E+02   .28234780E+02   .27768216E+02   .27310388E+02   .26861248E+02
   .26420740E+02   .25988800E+02   .25565357E+02   .25150329E+02   .24743631E+02
   .24345168E+02   .23954838E+02   .23572535E+02   .23198147E+02   .22831554E+02
   .22472633E+02   .22121258E+02   .21777295E+02   .21440610E+02   .21111063E+02
   .20788513E+02   .20472816E+02   .20163826E+02   .19861396E+02   .19565378E+02
   .19275622E+02   .18991981E+02   .18714304E+02   .18442445E+02   .18176257E+02
   .17915593E+02   .17660310E+02   .17410267E+02   .17165324E+02   .16925345E+02
   .16690196E+02   .16459748E+02   .16233872E+02   .16012445E+02   .15795349E+02
   .15582468E+02   .15373689E+02   .15168906E+02   .14968016E+02   .14770918E+02
   .14577520E+02   .14387731E+02   .14201464E+02   .14018637E+02   .13839174E+02
   .13663001E+02   .13490048E+02   .13320249E+02   .13153543E+02   .12989871E+02
   .12829179E+02   .12671414E+02   .12516527E+02   .12364473E+02   .12215208E+02
   .12068690E+02   .11924880E+02   .11783742E+02   .11645239E+02   .11509337E+02
   .11376002E+02   .11245202E+02   .11116905E+02   .10991080E+02   .10867696E+02
   .10746720E+02   .10628123E+02   .10511871E+02   .10397932E+02   .10286274E+02
   .10176862E+02   .10069661E+02   .99646357E+01   .98617476E+01   .97609583E+01
   .96622280E+01   .95655149E+01   .94707761E+01   .93779673E+01   .92870425E+01
   .91979544E+01   .91106541E+01   .90250918E+01   .89412159E+01   .88589740E+01
   .87783124E+01   .86991766E+01   .86215112E+01   .85452603E+01   .84703671E+01
   .83967749E+01   .83244265E+01   .82532649E+01   .81832331E+01   .81142745E+01
   .80463332E+01   .79793539E+01   .79132822E+01   .78480651E+01   .77836505E+01
   .77199880E+01   .76570288E+01   .75947260E+01   .75330346E+01   .74719116E+01
   .74113165E+01   .73512111E+01   .72915596E+01   .72323289E+01   .71734888E+01
   .71150115E+01   .70568724E+01   .69990495E+01   .69415240E+01   .68842798E+01
   .68273039E+01   .67705860E+01   .67141190E+01   .66578984E+01   .66019224E+01
   .65461920E+01   .64907109E+01   .64354849E+01   .63805226E+01   .63258343E+01
   .62714328E+01   .62173326E+01   .61635499E+01   .61101026E+01   .60570098E+01
   .60042920E+01   .59519705E+01   .59000677E+01   .58486062E+01   .57976094E+01
   .57471007E+01   .56971036E+01   .56476415E+01   .55987372E+01   .55504132E+01
   .55026911E+01   .54555918E+01   .54091349E+01   .53633389E+01   .53182209E+01
   .52737965E+01   .52300797E+01   .51870828E+01   .51448161E+01   .51032881E+01
   .50625052E+01   .50224720E+01   .49831908E+01   .49446618E+01   .49068831E+01
   .48698508E+01   .48335587E+01   .47979986E+01   .47631605E+01   .47290321E+01
   .46955993E+01   .46628463E+01   .46307555E+01   .45993076E+01   .45684819E+01
   .45382563E+01   .45086074E+01   .44795106E+01   .44509406E+01   .44228710E+01
   .43952747E+01   .43681242E+01   .43413917E+01   .43150489E+01   .42890678E+01
   .42634202E+01   .42380783E+01   .42130148E+01   .41882028E+01   .41636161E+01
   .41392294E+01   .41150185E+01   .40909599E+01   .40670318E+01   .40432132E+01
   .40194849E+01   .39958289E+01   .39722289E+01   .39486702E+01   .39251396E+01
   .39016259E+01   .38781194E+01   .38546120E+01   .38310978E+01   .38075722E+01
   .37840325E+01   .37604778E+01   .37369086E+01   .37133272E+01   .36897374E+01
   .36661445E+01   .36425552E+01   .36189774E+01   .35954204E+01   .35718946E+01
   .35484113E+01   .35249829E+01   .35016224E+01   .34783437E+01   .34551611E+01
   .34320894E+01   .34091437E+01   .33863394E+01   .33636917E+01   .33412160E+01
   .33189275E+01   .32968410E+01   .32749710E+01   .32533315E+01   .32319357E+01
   .32107965E+01   .31899255E+01   .31693339E+01   .31490316E+01   .31290277E+01
   .31093301E+01   .30899458E+01   .30708803E+01   .30521380E+01   .30337223E+01
   .30156351E+01   .29978771E+01   .29804479E+01   .29633455E+01   .29465670E+01
   .29301083E+01   .29139639E+01   .28981272E+01   .28825907E+01   .28673458E+01
   .28523829E+01   .28376915E+01   .28232602E+01   .28090770E+01   .27951291E+01
   .27814033E+01   .27678857E+01   .27545622E+01   .27414182E+01   .27284390E+01
   .27156096E+01   .27029153E+01   .26903412E+01   .26778726E+01   .26654949E+01
   .26531942E+01   .26409565E+01   .26287687E+01   .26166180E+01   .26044923E+01
   .25923802E+01   .25802711E+01   .25681549E+01   .25560227E+01   .25438663E+01
   .25316786E+01   .25194531E+01   .25071847E+01   .24948690E+01   .24825027E+01
   .24700835E+01   .24576102E+01   .24450823E+01   .24325008E+01   .24198670E+01
   .24071837E+01   .23944543E+01   .23816831E+01   .23688753E+01   .23560367E+01
   .23431740E+01   .23302944E+01   .23174058E+01   .23045166E+01   .22916356E+01
   .22787722E+01   .22659360E+01   .22531369E+01   .22403849E+01   .22276903E+01
   .22150633E+01   .22025144E+01   .21900536E+01   .21776910E+01   .21654365E+01
   .21532997E+01   .21412899E+01   .21294160E+01   .21176864E+01   .21061090E+01
   .20946914E+01   .20834402E+01   .20723619E+01   .20614618E+01   .20507449E+01
   .20402154E+01   .20298767E+01   .20197315E+01   .20097816E+01   .20000284E+01
   .19904720E+01   .19811123E+01   .19719480E+01   .19629772E+01   .19541974E+01
   .19456053E+01   .19371967E+01   .19289671E+01   .19209112E+01   .19130229E+01
   .19052960E+01   .18977234E+01   .18902976E+01   .18830108E+01   .18758547E+01
   .18688205E+01   .18618995E+01   .18550824E+01   .18483598E+01   .18417223E+01
   .18351603E+01   .18286641E+01   .18222241E+01   .18158307E+01   .18094746E+01
   .18031463E+01   .17968369E+01   .17905374E+01   .17842395E+01   .17779348E+01
   .17716157E+01   .17652746E+01   .17589046E+01   .17524994E+01   .17460528E+01
   .17395594E+01   .17330144E+01   .17264134E+01   .17197527E+01   .17130292E+01
   .17062402E+01   .16993839E+01   .16924590E+01   .16854648E+01   .16784011E+01
   .16712685E+01   .16640681E+01   .16568016E+01   .16494713E+01   .16420799E+01
   .16346309E+01   .16271280E+01   .16195756E+01   .16119784E+01   .16043417E+01
   .15966710E+01   .15889723E+01   .15812518E+01   .15735161E+01   .15657719E+01
   .15580263E+01   .15502865E+01   .15425596E+01   .15348531E+01   .15271744E+01
   .15195309E+01   .15119301E+01   .15043792E+01   .14968856E+01   .14894562E+01
   .14820979E+01   .14748176E+01   .14676215E+01   .14605159E+01   .14535065E+01
   .14465988E+01   .14397981E+01   .14331089E+01   .14265355E+01   .14200819E+01
   .14137515E+01   .14075470E+01   .14014710E+01   .13955253E+01   .13897114E+01
   .13840301E+01   .13784818E+01   .13730664E+01   .13677830E+01   .13626306E+01
   .13576074E+01   .13527112E+01   .13479393E+01   .13432885E+01   .13387553E+01
   .13343355E+01   .13300246E+01   .13258179E+01   .13217100E+01   .13176955E+01
   .13137684E+01   .13099226E+01   .13061516E+01   .13024489E+01   .12988076E+01
   .12952209E+01   .12916816E+01   .12881825E+01   .12847166E+01   .12812767E+01
   .12778556E+01   .12744462E+01   .12710415E+01   .12676349E+01   .12642195E+01
   .12607890E+01   .12573372E+01   .12538582E+01   .12503464E+01   .12467965E+01
   .12432036E+01   .12395631E+01   .12358710E+01   .12321235E+01   .12283173E+01
   .12244497E+01   .12205184E+01   .12165213E+01   .12124573E+01   .12083253E+01
   .12041250E+01   .11998564E+01   .11955203E+01   .11911176E+01   .11866498E+01
   .11821191E+01   .11775278E+01   .11728789E+01   .11681757E+01   .11634218E+01
   .11586214E+01   .11537790E+01   .11488992E+01   .11439872E+01   .11390482E+01
   .11340879E+01   .11291120E+01   .11241263E+01   .11191371E+01   .11141504E+01
   .11091724E+01   .11042094E+01   .10992677E+01   .10943533E+01   .10894725E+01
   .10846312E+01   .10798352E+01   .10750903E+01   .10704018E+01   .10657750E+01
   .10612148E+01   .10567259E+01   .10523126E+01   .10479788E+01   .10437281E+01
   .10395638E+01   .10354887E+01   .10315051E+01   .10276150E+01   .10238199E+01
   .10201209E+01   .10165185E+01   .10130130E+01   .10096040E+01   .10062907E+01
   .10030721E+01   .99994636E+00   .99691153E+00   .99396512E+00   .99110428E+00
   .98832578E+00   .98562602E+00   .98300110E+00   .98044679E+00   .97795859E+00
   .97553174E+00   .97316126E+00   .97084199E+00   .96856857E+00   .96633554E+00
   .96413733E+00   .96196830E+00   .95982278E+00   .95769508E+00   .95557957E+00
   .95347067E+00   .95136287E+00   .94925083E+00   .94712933E+00   .94499335E+00
   .94283809E+00   .94065896E+00   .93845166E+00   .93621217E+00   .93393677E+00
   .93162209E+00   .92926508E+00   .92686305E+00   .92441369E+00   .92191508E+00
   .91936566E+00   .91676429E+00   .91411022E+00   .91140308E+00   .90864292E+00
   .90583017E+00   .90296563E+00   .90005050E+00   .89708633E+00   .89407502E+00
   .89101880E+00   .88792023E+00   .88478218E+00   .88160778E+00   .87840042E+00
   .87516374E+00   .87190158E+00   .86861798E+00   .86531712E+00   .86200333E+00
   .85868103E+00   .85535474E+00   .85202900E+00   .84870839E+00   .84539747E+00
   .84210077E+00   .83882276E+00   .83556781E+00   .83234017E+00   .82914397E+00
   .82598315E+00   .82286146E+00   .81978247E+00   .81674950E+00   .81376561E+00
   .81083363E+00   .80795608E+00   .80513520E+00   .80237295E+00   .79967094E+00
   .79703050E+00   .79445262E+00   .79193796E+00   .78948686E+00   .78709934E+00
   .78477510E+00   .78251349E+00   .78031359E+00   .77817416E+00   .77609366E+00
   .77407028E+00   .77210192E+00   .77018627E+00   .76832073E+00   .76650253E+00
   .76472867E+00   .76299598E+00   .76130113E+00   .75964065E+00   .75801097E+00
   .75640840E+00   .75482921E+00   .75326959E+00   .75172575E+00   .75019387E+00
   .74867016E+00   .74715087E+00   .74563232E+00   .74411093E+00   .74258321E+00
   .74104580E+00   .73949550E+00   .73792925E+00   .73634419E+00   .73473766E+00
   .73310717E+00   .73145049E+00   .72976560E+00   .72805075E+00   .72630439E+00
   .72452527E+00   .72271239E+00   .72086500E+00   .71898262E+00   .71706506E+00
   .71511237E+00   .71312486E+00   .71110311E+00   .70904795E+00   .70696043E+00
   .70484186E+00   .70269377E+00   .70051788E+00   .69831613E+00   .69609063E+00
   .69384368E+00   .69157770E+00   .68929529E+00   .68699914E+00   .68469206E+00
   .68237693E+00   .68005671E+00   .67773441E+00   .67541306E+00   .67309573E+00
   .67078544E+00   .66848524E+00   .66619809E+00   .66392691E+00   .66167457E+00
   .65944381E+00   .65723727E+00   .65505748E+00   .65290682E+00   .65078754E+00
   .64870170E+00   .64665120E+00   .64463776E+00   .64266289E+00   .64072792E+00
   .63883396E+00   .63698191E+00   .63517246E+00   .63340608E+00   .63168302E+00
   .63000330E+00   .62836673E+00   .62677293E+00   .62522126E+00   .62371092E+00
   .62224088E+00   .62080994E+00   .61941670E+00   .61805959E+00   .61673687E+00
   .61544667E+00   .61418693E+00   .61295552E+00   .61175014E+00   .61056842E+00
   .60940789E+00   .60826601E+00   .60714018E+00   .60602776E+00   .60492606E+00
   .60383241E+00   .60274413E+00   .60165855E+00   .60057305E+00   .59948504E+00
   .59839201E+00   .59729152E+00   .59618122E+00   .59505888E+00   .59392236E+00
   .59276966E+00   .59159893E+00   .59040846E+00   .58919667E+00   .58796220E+00
   .58670380E+00   .58542044E+00   .58411126E+00   .58277558E+00   .58141291E+00
   .58002295E+00   .57860560E+00   .57716093E+00   .57568921E+00   .57419091E+00
   .57266666E+00   .57111728E+00   .56954375E+00   .56794723E+00   .56632904E+00
   .56469063E+00   .56303361E+00   .56135970E+00   .55967076E+00   .55796875E+00
   .55625572E+00   .55453381E+00   .55280522E+00   .55107222E+00   .54933711E+00
   .54760223E+00   .54586993E+00   .54414256E+00   .54242246E+00   .54071195E+00
   .53901330E+00   .53732874E+00   .53566041E+00   .53401042E+00   .53238075E+00
   .53077329E+00   .52918983E+00   .52763203E+00   .52610143E+00   .52459943E+00
   .52312726E+00   .52168604E+00   .52027671E+00   .51890003E+00   .51755662E+00
   .51624691E+00   .51497117E+00   .51372950E+00   .51252181E+00   .51134785E+00
   .51020719E+00   .50909924E+00   .50802325E+00   .50697831E+00   .50596335E+00
   .50497716E+00   .50401840E+00   .50308560E+00   .50217716E+00   .50129138E+00
   .50042646E+00   .49958051E+00   .49875155E+00   .49793756E+00   .49713646E+00
   .49634610E+00   .49556434E+00   .49478901E+00   .49401793E+00   .49324893E+00
   .49247988E+00   .49170865E+00   .49093318E+00   .49015148E+00   .48936159E+00
   .48856168E+00   .48774997E+00   .48692480E+00   .48608463E+00   .48522801E+00
   .48435365E+00   .48346038E+00   .48254715E+00   .48161310E+00   .48065749E+00
   .47967973E+00   .47867941E+00   .47765624E+00   .47661013E+00   .47554113E+00
   .47444942E+00   .47333539E+00   .47219952E+00   .47104247E+00   .46986505E+00
   .46866819E+00   .46745294E+00   .46622049E+00   .46497215E+00   .46370931E+00
   .46243349E+00   .46114628E+00   .45984934E+00   .45854441E+00   .45723329E+00
   .45591782E+00   .45459986E+00   .45328131E+00   .45196409E+00   .45065008E+00
   .44934119E+00   .44803927E+00   .44674616E+00   .44546365E+00   .44419345E+00
   .44293723E+00   .44169657E+00   .44047296E+00   .43926781E+00   .43808242E+00
   .43691796E+00   .43577553E+00   .43465606E+00   .43356038E+00   .43248919E+00
   .43144304E+00   .43042236E+00   .42942744E+00   .42845842E+00   .42751531E+00
   .42659798E+00   .42570616E+00   .42483946E+00   .42399733E+00   .42317913E+00
   .42238407E+00   .42161126E+00   .42085969E+00   .42012825E+00   .41941573E+00
   .41872084E+00   .41804221E+00   .41737840E+00   .41672790E+00   .41608916E+00
   .41546059E+00   .41484056E+00   .41422742E+00   .41361951E+00   .41301519E+00
   .41241279E+00   .41181071E+00   .41120733E+00   .41060109E+00   .40999050E+00
   .40937408E+00   .40875045E+00   .40811829E+00   .40747637E+00   .40682353E+00
   .40615872E+00   .40548097E+00   .40478942E+00   .40408334E+00   .40336208E+00
   .40262512E+00   .40187206E+00   .40110262E+00   .40031661E+00   .39951400E+00
   .39869486E+00   .39785937E+00   .39700783E+00   .39614067E+00   .39525839E+00
   .39436163E+00   .39345111E+00   .39252765E+00   .39159215E+00   .39064560E+00
   .38968905E+00   .38872363E+00   .38775053E+00   .38677098E+00   .38578625E+00
   .38479767E+00   .38380656E+00   .38281429E+00   .38182223E+00   .38083173E+00
   .37984415E+00   .37886085E+00   .37788314E+00   .37691230E+00   .37594959E+00
   .37499620E+00   .37405328E+00   .37312192E+00   .37220313E+00   .37129786E+00
 gradient corrections used for XC
 5
 core charge-density (partial)
   .99274200E+00   .99239489E+00   .99135428E+00   .98962230E+00   .98720247E+00
   .98409974E+00   .98032042E+00   .97587219E+00   .97076403E+00   .96500627E+00
   .95861047E+00   .95158942E+00   .94395710E+00   .93572863E+00   .92692019E+00
   .91754902E+00   .90763331E+00   .89719217E+00   .88624557E+00   .87481424E+00
   .86291967E+00   .85058397E+00   .83782985E+00   .82468053E+00   .81115967E+00
   .79729133E+00   .78309983E+00   .76860977E+00   .75384588E+00   .73883301E+00
   .72359601E+00   .70815972E+00   .69254887E+00   .67678802E+00   .66090151E+00
   .64491338E+00   .62884736E+00   .61272676E+00   .59657446E+00   .58041286E+00
   .56426378E+00   .54814852E+00   .53208771E+00   .51610137E+00   .50020879E+00
   .48442859E+00   .46877862E+00   .45327596E+00   .43793693E+00   .42277703E+00
   .40781095E+00   .39305255E+00   .37851486E+00   .36421007E+00   .35014952E+00
   .33634373E+00   .32280235E+00   .30953422E+00   .29654734E+00   .28384891E+00
   .27144531E+00   .25934214E+00   .24754422E+00   .23605561E+00   .22487963E+00
   .21401889E+00   .20347530E+00   .19325010E+00   .18334386E+00   .17375654E+00
   .16448750E+00   .15553552E+00   .14689883E+00   .13857515E+00   .13056169E+00
   .12285521E+00   .11545201E+00   .10834800E+00   .10153871E+00   .95019283E-01
   .88784563E-01   .82829082E-01   .77147095E-01   .71732609E-01   .66579409E-01
   .61681078E-01   .57031027E-01   .52622514E-01   .48448670E-01   .44502522E-01
   .40777009E-01   .37265011E-01   .33959360E-01   .30852867E-01   .27938333E-01
   .25208571E-01   .22656422E-01   .20274768E-01   .18056549E-01   .15994776E-01
   .14082541E-01   .12313034E-01   .10679553E-01   .91755080E-02   .77944399E-02
   .65300219E-02   .53760705E-02   .43265515E-02   .33755863E-02   .25174575E-02
   .17466134E-02   .10576723E-02   .44542564E-03  -.95159417E-04  -.56893763E-03
  -.98058436E-03  -.13345947E-02  -.16352829E-02  -.18867828E-02  -.20930484E-02
  -.22578546E-02  -.23847992E-02  -.24773046E-02  -.25386200E-02  -.25718242E-02
  -.25798285E-02  -.25653798E-02  -.25310645E-02  -.24793119E-02  -.24123982E-02
  -.23324510E-02  -.22414533E-02  -.21412481E-02  -.20335432E-02  -.19199156E-02
  -.18018166E-02  -.16805765E-02  -.15574096E-02  -.14334193E-02  -.13096028E-02
  -.11868562E-02  -.10659796E-02  -.94768166E-03  -.83258495E-03  -.72123041E-03
  -.61408225E-03  -.51153263E-03  -.41390621E-03  -.32146468E-03  -.23441110E-03
  -.15289422E-03  -.77012622E-04  -.68187271E-05   .57677289E-04   .11650374E-03
   .16972380E-03   .21743203E-03   .25975104E-03   .29682830E-03   .32883311E-03
   .35595365E-03   .37839434E-03   .39637313E-03   .41011915E-03   .41987034E-03
   .42587133E-03   .42837142E-03   .42762269E-03   .42387829E-03   .41739085E-03
   .40841097E-03   .39718592E-03   .38395840E-03   .36896549E-03   .35243760E-03
   .33459767E-03   .31566041E-03   .29583157E-03   .27530750E-03   .25427459E-03
   .23290894E-03   .21137608E-03   .18983073E-03   .16841671E-03   .14726682E-03
   .12650288E-03   .10623579E-03   .86565612E-04   .67581790E-04   .49363321E-04
   .31979034E-04   .15487877E-04  -.60748373E-07  -.14626631E-04  -.28178365E-04
  -.40692940E-04  -.52155317E-04  -.62557983E-04  -.71900503E-04  -.80189050E-04
  -.87435942E-04  -.93659168E-04  -.98881914E-04  -.10313210E-03  -.10644189E-03
  -.10884727E-03  -.11038757E-03  -.11110502E-03  -.11104433E-03  -.11025229E-03
  -.10877733E-03  -.10666915E-03  -.10397837E-03  -.10075617E-03  -.97053911E-04
  -.92922900E-04  -.88414032E-04  -.83577545E-04  -.78462755E-04  -.73117824E-04
  -.67589548E-04  -.61923160E-04  -.56162156E-04  -.50348142E-04  -.44520703E-04
  -.38717279E-04  -.32973076E-04  -.27320981E-04  -.21791504E-04  -.16412732E-04
  -.11210300E-04  -.62073766E-05  -.14246654E-05   .31195802E-05   .74095299E-05
   .11431738E-04   .15175090E-04   .18630746E-04   .21792068E-04   .24654540E-04
   .27215687E-04   .29474974E-04   .31433714E-04   .33094960E-04   .34463400E-04
   .35545241E-04   .36348098E-04   .36880875E-04   .37153651E-04   .37177558E-04
   .36964666E-04   .36527864E-04   .35880745E-04   .35037493E-04   .34012767E-04
   .32821600E-04   .31479287E-04   .30001286E-04   .28403121E-04   .26700289E-04
   .24908170E-04   .23041944E-04   .21116515E-04   .19146435E-04   .17145839E-04
   .15128381E-04   .13107179E-04   .11094764E-04   .91030356E-05   .71432208E-05
   .52258425E-05   .33606901E-05   .15567971E-05  -.17757688E-06  -.18349579E-05
  -.34086657E-05  -.48928159E-05  -.62823183E-05  -.75728705E-05  -.87609476E-05
  -.98437879E-05  -.10819375E-04  -.11686415E-04  -.12444317E-04  -.13093158E-04
  -.13633660E-04  -.14067154E-04  -.14395549E-04  -.14621293E-04  -.14747337E-04
  -.14777095E-04  -.14714408E-04  -.14563501E-04  -.14328942E-04  -.14015604E-04
  -.13628620E-04  -.13173346E-04  -.12655320E-04  -.12080222E-04  -.11453834E-04
  -.10782006E-04  -.10070617E-04  -.93255396E-05  -.85526081E-05  -.77575855E-05
  -.69461333E-05  -.61237832E-05  -.52959102E-05  -.44677082E-05  -.36441672E-05
  -.28300527E-05  -.20298870E-05  -.12479332E-05  -.48818067E-06   .24566743E-06
   .95020388E-06   .16223256E-05   .22592399E-05   .28584681E-05   .34178481E-05
   .39355344E-05   .44099967E-05   .48400166E-05   .52246826E-05   .55633842E-05
   .58558035E-05   .61019061E-05   .63019308E-05   .64563780E-05   .65659971E-05
   .66317725E-05   .66549099E-05   .66368206E-05   .65791062E-05   .64835421E-05
   .63520611E-05   .61867368E-05   .59897659E-05   .57634516E-05   .55101865E-05
   .52324355E-05   .49327188E-05   .46135958E-05   .42776490E-05   .39274680E-05
   .35656344E-05   .31947077E-05   .28172107E-05   .24356167E-05   .20523370E-05
   .16697090E-05   .12899855E-05   .91532460E-06   .54778055E-06   .18929560E-06
  -.15830741E-06  -.49333135E-06  -.81421035E-06  -.11195143E-05  -.14079523E-05
  -.16783758E-05  -.19297798E-05  -.21613044E-05  -.23722344E-05  -.25619988E-05
  -.27301691E-05  -.28764575E-05  -.30007131E-05  -.31029189E-05  -.31831871E-05
  -.32417547E-05  -.32789771E-05  -.32953234E-05  -.32913688E-05  -.32677889E-05
  -.32253517E-05  -.31649107E-05  -.30873971E-05  -.29938120E-05  -.28852182E-05
  -.27627323E-05  -.26275166E-05  -.24807708E-05  -.23237240E-05  -.21576267E-05
  -.19837430E-05  -.18033426E-05  -.16176940E-05  -.14280563E-05  -.12356731E-05
  -.10417654E-05  -.84752528E-06  -.65411008E-06  -.46263679E-06  -.27417680E-06
  -.89751225E-07   .89673502E-07   .26318946E-06   .42995073E-06   .58917630E-06
   .74015267E-06   .88223588E-06   .10148531E-05   .11375037E-05   .12497603E-05
   .13512686E-05   .14417474E-05   .15209883E-05   .15888542E-05   .16452785E-05
   .16902632E-05   .17238767E-05   .17462516E-05   .17575823E-05   .17581216E-05
   .17481778E-05   .17281114E-05   .16983312E-05   .16592910E-05   .16114853E-05
   .15554455E-05   .14917354E-05   .14209478E-05   .13436995E-05   .12606274E-05
   .11723843E-05   .10796346E-05   .98305001E-06   .88330591E-06   .78107695E-06
   .67703333E-06   .57183711E-06   .46613859E-06   .36057291E-06   .25575680E-06
   .15228557E-06   .50730283E-07  -.48364886E-07  -.14448501E-06  -.23714660E-06
  -.32589945E-06  -.41032842E-06  -.49005477E-06  -.56473740E-06  -.63407375E-06
  -.69780053E-06  -.75569415E-06  -.80757094E-06  -.85328711E-06  -.89273854E-06
  -.92586027E-06  -.95262588E-06  -.97304654E-06  -.98717003E-06  -.99507940E-06
  -.99689164E-06  -.99275605E-06  -.98285254E-06  -.96738983E-06  -.94660342E-06
  -.92075360E-06  -.89012325E-06  -.85501568E-06  -.81575230E-06  -.77267033E-06
  -.72612044E-06  -.67646439E-06  -.62407265E-06  -.56932209E-06  -.51259359E-06
  -.45426977E-06  -.39473275E-06  -.33436197E-06  -.27353207E-06  -.21261084E-06
  -.15195732E-06  -.91919907E-07  -.32834674E-07   .24976299E-07   .81206395E-07
   .13556585E-06   .18778298E-06   .23760532E-06   .28480056E-06   .32915740E-06
   .37048625E-06   .40861976E-06   .44341324E-06   .47474495E-06   .50251620E-06
   .52665139E-06   .54709785E-06   .56382557E-06   .57682687E-06   .58611584E-06
   .59172777E-06   .59371842E-06   .59216319E-06   .58715624E-06   .57880946E-06
   .56725143E-06   .55262626E-06   .53509241E-06   .51482140E-06   .49199656E-06
   .46681164E-06   .43946950E-06   .41018070E-06   .37916208E-06   .34663544E-06
   .31282607E-06   .27796142E-06   .24226972E-06   .20597866E-06   .16931408E-06
   .13249875E-06   .95751106E-07   .59284139E-07   .23304281E-07  -.11989629E-07
  -.46407312E-07  -.79767946E-07  -.11190099E-06  -.14264691E-06  -.17185787E-06
  -.19939831E-06  -.22514541E-06  -.24898957E-06  -.27083466E-06  -.29059834E-06
  -.30821217E-06  -.32362171E-06  -.33678651E-06  -.34768004E-06  -.35628951E-06
  -.36261564E-06  -.36667238E-06  -.36848647E-06  -.36809708E-06  -.36555525E-06
  -.36092335E-06  -.35427448E-06  -.34569178E-06  -.33526779E-06  -.32310363E-06
  -.30930831E-06  -.29399787E-06  -.27729458E-06  -.25932611E-06  -.24022467E-06
  -.22012614E-06  -.19916922E-06  -.17749459E-06  -.15524401E-06  -.13255952E-06
  -.10958262E-06  -.86453447E-07  -.63309996E-07  -.40287401E-07  -.17517195E-07
   .48733576E-08   .26761906E-07   .48031611E-07   .68571695E-07   .88277955E-07
   .10705322E-06   .12480776E-06   .14145964E-06   .15693503E-06   .17116848E-06
   .18410307E-06   .19569060E-06   .20589167E-06   .21467574E-06   .22202107E-06
   .22791472E-06   .23235241E-06   .23533838E-06   .23688516E-06   .23701336E-06
   .23575138E-06   .23313505E-06   .22920731E-06   .22401783E-06   .21762252E-06
   .21008314E-06   .20146681E-06   .19184552E-06   .18129559E-06   .16989717E-06
   .15773369E-06   .14489132E-06   .13145844E-06   .11752501E-06   .10318213E-06
   .88521406E-07   .73634457E-07   .58612375E-07   .43545215E-07   .28521493E-07
   .13627717E-07  -.10520796E-08  -.15436766E-07  -.29448524E-07  -.43013232E-07
  -.56060813E-07  -.68525564E-07  -.80346440E-07  -.91467321E-07  -.10183723E-06
  -.11141054E-06  -.12014709E-06  -.12801239E-06  -.13497761E-06  -.14101970E-06
  -.14612141E-06  -.15027124E-06  -.15346342E-06  -.15569783E-06  -.15697989E-06
  -.15732040E-06  -.15673543E-06  -.15524606E-06  -.15287821E-06  -.14966239E-06
  -.14563339E-06  -.14083009E-06  -.13529506E-06  -.12907432E-06  -.12221697E-06
  -.11477485E-06  -.10680222E-06  -.98355371E-07  -.89492268E-07  -.80272203E-07
  -.70755412E-07  -.61002718E-07  -.51075168E-07  -.41033680E-07  -.30938694E-07
  -.20849832E-07  -.10825574E-07  -.92294052E-09   .88028080E-08   .18298455E-07
   .27513097E-07   .36398394E-07   .44908797E-07   .53001761E-07   .60637936E-07
   .67781331E-07   .74399459E-07   .80463464E-07   .85948217E-07   .90832392E-07
   .95098522E-07   .98733028E-07   .10172622E-06   .10407231E-06   .10576932E-06
   .10681908E-06   .10722712E-06   .10700258E-06   .10615809E-06   .10470963E-06
   .10267639E-06   .10008060E-06   .96947316E-07   .93304287E-07   .89181692E-07
   .84611950E-07   .79629490E-07   .74270512E-07   .68572752E-07   .62575238E-07
   .56318040E-07   .49842025E-07   .43188602E-07   .36399483E-07   .29516431E-07
   .22581019E-07   .15634399E-07   .87170698E-08   .18686556E-08  -.48723066E-08
  -.11468569E-07  -.17884366E-07  -.24085591E-07  -.30039970E-07  -.35717207E-07
  -.41089132E-07  -.46129822E-07  -.50815712E-07  -.55125690E-07  -.59041178E-07
  -.62546192E-07  -.65627394E-07  -.68274118E-07  -.70478392E-07  -.72234932E-07
  -.73541132E-07  -.74397030E-07  -.74805261E-07  -.74771007E-07  -.74301911E-07
  -.73408004E-07  -.72101598E-07  -.70397181E-07  -.68311299E-07  -.65862420E-07
  -.63070802E-07  -.59958343E-07  -.56548427E-07  -.52865769E-07  -.48936247E-07
  -.44786734E-07  -.40444929E-07  -.35939182E-07  -.31298321E-07  -.26551479E-07
  -.21727919E-07  -.16856867E-07  -.11967342E-07  -.70879947E-08  -.22469448E-08
   .25283674E-08   .72113305E-08   .11776300E-07   .16198732E-07   .20455304E-07
   .24524030E-07   .28384366E-07   .32017305E-07   .35405460E-07   .38533137E-07
   .41386401E-07   .43953126E-07   .46223035E-07   .48187730E-07   .49840709E-07
   .51177377E-07   .52195037E-07   .52892876E-07   .53271941E-07   .53335106E-07
   .53087019E-07   .52534053E-07   .51684240E-07   .50547199E-07   .49134056E-07
   .47457353E-07   .45530956E-07   .43369957E-07   .40990563E-07   .38409986E-07
   .35646331E-07   .32718476E-07   .29645952E-07   .26448818E-07   .23147543E-07
   .19762873E-07   .16315718E-07   .12827019E-07   .93176349E-08   .58082195E-08
   .23191069E-08  -.11298004E-08  -.45191391E-08  -.78301885E-08  -.11044968E-07
  -.14146330E-07  -.17118045E-07  -.19944879E-07  -.22612671E-07  -.25108392E-07
  -.27420206E-07  -.29537521E-07  -.31451028E-07  -.33152735E-07  -.34635997E-07
  -.35895529E-07  -.36927418E-07  -.37729125E-07  -.38299477E-07  -.38638657E-07
  -.38748176E-07  -.38630851E-07  -.38290765E-07  -.37733226E-07  -.36964719E-07
  -.35992847E-07  -.34826276E-07  -.33474665E-07  -.31948598E-07  -.30259508E-07
  -.28419598E-07  -.26441763E-07  -.24339500E-07  -.22126827E-07  -.19818190E-07
  -.17428375E-07  -.14972420E-07  -.12465522E-07  -.99229494E-08  -.73599509E-08
  -.47916696E-08  -.22330569E-08   .30121050E-09   .27968114E-08   .52398568E-08
   .76169641E-08   .99153260E-08   .12122777E-07   .14227851E-07   .16219843E-07
   .18088853E-07   .19825836E-07   .21422639E-07   .22872036E-07   .24167757E-07
   .25304509E-07   .26277992E-07   .27084913E-07   .27722984E-07   .28190927E-07
   .28488464E-07   .28616305E-07   .28576128E-07   .28370559E-07   .28003140E-07
   .27478296E-07   .26801300E-07   .25978228E-07   .25015912E-07   .23921891E-07
   .22704360E-07   .21372108E-07   .19934466E-07   .18401238E-07   .16782644E-07
   .15089252E-07   .13331917E-07   .11521705E-07   .96698374E-08   .77876167E-08
   .58863632E-08   .39773494E-08   .20717353E-08   .18050593E-09  -.16855891E-08
  -.35160948E-08  -.53009064E-08  -.70303229E-08  -.86950972E-08  -.10286483E-07
  -.11796279E-07  -.13216867E-07  -.14541248E-07  -.15763077E-07  -.16876686E-07
  -.17877110E-07  -.18760105E-07  -.19522165E-07  -.20160526E-07  -.20673180E-07
  -.21058870E-07  -.21317088E-07  -.21448071E-07  -.21452786E-07  -.21332916E-07
  -.21090840E-07  -.20729610E-07  -.20252927E-07  -.19665104E-07  -.18971042E-07
  -.18176186E-07  -.17286491E-07  -.16308380E-07  -.15248699E-07  -.14114672E-07
  -.12913859E-07  -.11654102E-07  -.10343478E-07  -.89902501E-08  -.76028190E-08
  -.61896691E-08  -.47593212E-08  -.33202822E-08  -.18809960E-08  -.44979638E-09
   .96514001E-09   .23558385E-08   .37145695E-08   .50338900E-08   .63066827E-08
   .75261921E-08   .86860595E-08   .97803537E-08   .10803600E-07   .11750805E-07
   .12617481E-07   .13399661E-07   .14093921E-07   .14697386E-07   .15207746E-07
   .15623254E-07   .15942738E-07   .16165592E-07   .16291777E-07   .16321813E-07
   .16256768E-07   .16098243E-07   .15848362E-07   .15509745E-07   .15085493E-07
   .14579161E-07   .13994732E-07   .13336587E-07   .12609480E-07   .11818499E-07
   .10969037E-07   .10066756E-07   .91175497E-08   .81275085E-08   .71028803E-08
   .60500338E-08   .49754193E-08   .38855311E-08   .27868693E-08   .16859024E-08
   .58903042E-09  -.49745101E-09  -.15673858E-08  -.26147908E-08  -.36338884E-08
  -.46191368E-08  -.55652596E-08  -.64672719E-08  -.73205065E-08  -.81206357E-08
  -.88636928E-08  -.95460898E-08  -.10164634E-07  -.10716541E-07  -.11199445E-07
  -.11611409E-07  -.11950930E-07  -.12216940E-07  -.12408810E-07  -.12526345E-07
  -.12569785E-07  -.12539792E-07  -.12437444E-07  -.12264224E-07  -.12022006E-07
  -.11713038E-07  -.11339928E-07  -.10905620E-07  -.10413377E-07  -.98667538E-08
  -.92695792E-08  -.86259246E-08  -.79400809E-08  -.72165299E-08  -.64599168E-08
  -.56750209E-08  -.48667268E-08  -.40399948E-08  -.31998315E-08  -.23512606E-08
  -.14992932E-08  -.64889966E-09   .19501881E-09   .10276575E-08   .18443348E-08
   .26405175E-08   .34118451E-08   .41541532E-08   .48634947E-08   .55361603E-08
   .61686967E-08   .67579235E-08   .73009485E-08   .77951806E-08   .82383414E-08
   .86284743E-08   .89639523E-08   .92434831E-08   .94661127E-08   .96312272E-08
   .97385516E-08   .97881481E-08   .97804113E-08   .97160620E-08   .95961396E-08
   .94219919E-08   .91952639E-08   .89178849E-08   .85920539E-08   .82202237E-08
 atomic pseudo charge-density
   .80000000E+01   .79911808E+01   .79648605E+01   .79214467E+01   .78616027E+01
   .77862250E+01   .76964132E+01   .75934342E+01   .74786829E+01   .73536409E+01
   .72198350E+01   .70787981E+01   .69320329E+01   .67809803E+01   .66269925E+01
   .64713129E+01   .63150602E+01   .61592198E+01   .60046387E+01   .58520262E+01
   .57019579E+01   .55548829E+01   .54111335E+01   .52709364E+01   .51344248E+01
   .50016515E+01   .48726012E+01   .47472029E+01   .46253413E+01   .45068676E+01
   .43916087E+01   .42793758E+01   .41699718E+01   .40631970E+01   .39588548E+01
   .38567553E+01   .37567186E+01   .36585775E+01   .35621788E+01   .34673847E+01
   .33740731E+01   .32821378E+01   .31914887E+01   .31020506E+01   .30137629E+01
   .29265788E+01   .28404639E+01   .27553956E+01   .26713614E+01   .25883584E+01
   .25063916E+01   .24254729E+01   .23456204E+01   .22668568E+01   .21892089E+01
   .21127062E+01   .20373807E+01   .19632654E+01   .18903944E+01   .18188015E+01
   .17485203E+01   .16795831E+01   .16120211E+01   .15458636E+01   .14811379E+01
   .14178690E+01   .13560795E+01   .12957893E+01   .12370155E+01   .11797726E+01
   .11240720E+01   .10699225E+01   .10173299E+01   .96629744E+00   .91682542E+00
   .86891161E+00   .82255119E+00   .77773691E+00   .73445917E+00   .69270612E+00
   .65246381E+00   .61371630E+00   .57644578E+00   .54063269E+00   .50625584E+00
   .47329254E+00   .44171875E+00   .41150911E+00   .38263716E+00   .35507536E+00
   .32879526E+00   .30376757E+00   .27996228E+00   .25734873E+00   .23589573E+00
   .21557162E+00   .19634439E+00   .17818172E+00   .16105107E+00   .14491978E+00
   .12975509E+00   .11552424E+00   .10219454E+00   .89733375E-01   .78108327E-01
   .67287185E-01   .57238006E-01   .47929161E-01   .39329381E-01   .31407795E-01
   .24133967E-01   .17477937E-01   .11410245E-01   .59019717E-02   .92475981E-03
  -.35491573E-02  -.75469323E-02  -.11095082E-01  -.14219469E-01  -.16945283E-01
  -.19297025E-01  -.21298496E-01  -.22972782E-01  -.24342248E-01  -.25428527E-01
  -.26252513E-01  -.26834361E-01  -.27193479E-01  -.27348527E-01  -.27317420E-01
  -.27117327E-01  -.26764674E-01  -.26275146E-01  -.25663698E-01  -.24944556E-01
  -.24131227E-01  -.23236506E-01  -.22272491E-01  -.21250587E-01  -.20181522E-01
  -.19075359E-01  -.17941509E-01  -.16788745E-01  -.15625220E-01  -.14458477E-01
  -.13295471E-01  -.12142584E-01  -.11005639E-01  -.98899247E-02  -.88002082E-02
  -.77407560E-02  -.67153527E-02  -.57273201E-02  -.47795369E-02  -.38744581E-02
  -.30141351E-02  -.22002351E-02  -.14340613E-02  -.71657274E-03  -.48403797E-04
   .57011590E-03   .11389421E-02   .16582964E-02   .21286476E-02   .25506924E-02
   .29253371E-02   .32536795E-02   .35369910E-02   .37766993E-02   .39743715E-02
   .41316973E-02   .42504735E-02   .43325883E-02   .43800061E-02   .43947537E-02
   .43789062E-02   .43345738E-02   .42638893E-02   .41689962E-02   .40520374E-02
   .39151443E-02   .37604273E-02   .35899657E-02   .34058000E-02   .32099227E-02
   .30042721E-02   .27907245E-02   .25710890E-02   .23471015E-02   .21204201E-02
   .18926209E-02   .16651942E-02   .14395421E-02   .12169754E-02   .99871203E-03
   .78587581E-03   .57949556E-03   .38050481E-03   .18974197E-03   .79510005E-05
  -.16421757E-03  -.32620514E-03  -.47754322E-03  -.61785118E-03  -.74683378E-03
  -.86427827E-03  -.97005136E-03  -.10640958E-02  -.11464268E-02  -.12171282E-02
  -.12763489E-02  -.13242981E-02  -.13612417E-02  -.13874978E-02  -.14034322E-02
  -.14094542E-02  -.14060122E-02  -.13935889E-02  -.13726974E-02  -.13438767E-02
  -.13076871E-02  -.12647064E-02  -.12155257E-02  -.11607451E-02  -.11009702E-02
  -.10368085E-02  -.96886520E-03  -.89774057E-03  -.82402625E-03  -.74830241E-03
  -.67113491E-03  -.59307266E-03  -.51464523E-03  -.43636063E-03  -.35870332E-03
  -.28213246E-03  -.20708032E-03  -.13395098E-03  -.63119166E-04   .50706413E-05
   .70304925E-04   .13230163E-03   .19081049E-03   .24561311E-03   .29652293E-03
   .34338497E-03   .38607540E-03   .42450101E-03   .45859843E-03   .48833334E-03
   .51369941E-03   .53471721E-03   .55143303E-03   .56391750E-03   .57226424E-03
   .57658832E-03   .57702478E-03   .57372698E-03   .56686499E-03   .55662391E-03
   .54320214E-03   .52680975E-03   .50766669E-03   .48600114E-03   .46204783E-03
   .43604636E-03   .40823959E-03   .37887207E-03   .34818852E-03   .31643233E-03
   .28384419E-03   .25066071E-03   .21711318E-03   .18342640E-03   .14981753E-03
   .11649510E-03   .83658079E-04   .51495031E-04   .20183356E-04  -.10111355E-04
  -.39235885E-04  -.67049863E-04  -.93426137E-04  -.11825106E-03  -.14142469E-03
  -.16286090E-03  -.18248737E-03  -.20024558E-03  -.21609061E-03  -.22999099E-03
  -.24192834E-03  -.25189708E-03  -.25990397E-03  -.26596765E-03  -.27011811E-03
  -.27239610E-03  -.27285251E-03  -.27154772E-03  -.26855090E-03  -.26393925E-03
  -.25779733E-03  -.25021621E-03  -.24129273E-03  -.23112875E-03  -.21983029E-03
  -.20750680E-03  -.19427034E-03  -.18023483E-03  -.16551531E-03  -.15022716E-03
  -.13448543E-03  -.11840412E-03  -.10209554E-03  -.85669667E-04  -.69233570E-04
  -.52890843E-04  -.36741093E-04  -.20879463E-04  -.53961977E-05   .96237425E-05
   .24101029E-04   .37962265E-04   .51140239E-04   .63574137E-04   .75209701E-04
   .85999356E-04   .95902280E-04   .10488444E-03   .11291857E-03   .11998416E-03
   .12606731E-03   .13116065E-03   .13526315E-03   .13837996E-03   .14052216E-03
   .14170648E-03   .14195510E-03   .14129526E-03   .13975898E-03   .13738273E-03
   .13420703E-03   .13027610E-03   .12563748E-03   .12034163E-03   .11444153E-03
   .10799230E-03   .10105076E-03   .93675078E-04   .85924346E-04   .77858196E-04
   .69536422E-04   .61018613E-04   .52363795E-04   .43630086E-04   .34874369E-04
   .26151984E-04   .17516437E-04   .90191244E-05   .70908681E-06  -.73672240E-05
  -.15166150E-04  -.22647013E-04  -.29772273E-04  -.36507666E-04  -.42822320E-04
  -.48688843E-04  -.54083386E-04  -.58985694E-04  -.63379116E-04  -.67250614E-04
  -.70590729E-04  -.73393543E-04  -.75656612E-04  -.77380883E-04  -.78570594E-04
  -.79233150E-04  -.79378995E-04  -.79021461E-04  -.78176606E-04  -.76863040E-04
  -.75101742E-04  -.72915866E-04  -.70330541E-04  -.67372664E-04  -.64070686E-04
  -.60454399E-04  -.56554718E-04  -.52403460E-04  -.48033132E-04  -.43476709E-04
  -.38767424E-04  -.33938561E-04  -.29023248E-04  -.24054263E-04  -.19063844E-04
  -.14083507E-04  -.91438756E-05  -.42745171E-05   .49620670E-06   .51412808E-05
   .96351651E-05   .13953911E-04   .18075262E-04   .21978751E-04   .25645769E-04
   .29059637E-04   .32205653E-04   .35071131E-04   .37645427E-04   .39919951E-04
   .41888164E-04   .43545569E-04   .44889684E-04   .45920005E-04   .46637965E-04
   .47046867E-04   .47151826E-04   .46959689E-04   .46478947E-04   .45719652E-04
   .44693306E-04   .43412765E-04   .41892124E-04   .40146599E-04   .38192415E-04
   .36046673E-04   .33727235E-04   .31252592E-04   .28641738E-04   .25914044E-04
   .23089132E-04   .20186748E-04   .17226643E-04   .14228453E-04   .11211580E-04
   .81950856E-05   .51975778E-05   .22371140E-05  -.66889672E-06  -.35037840E-05
  -.62516991E-05  -.88976917E-05  -.11427779E-04  -.13829010E-04  -.16089514E-04
  -.18198556E-04  -.20146569E-04  -.21925187E-04  -.23527268E-04  -.24946912E-04
  -.26179464E-04  -.27221517E-04  -.28070904E-04  -.28726683E-04  -.29189115E-04
  -.29459636E-04  -.29540823E-04  -.29436352E-04  -.29150950E-04  -.28690349E-04
  -.28061222E-04  -.27271127E-04  -.26328439E-04  -.25242286E-04  -.24022472E-04
  -.22679406E-04  -.21224026E-04  -.19667722E-04  -.18022255E-04  -.16299680E-04
  -.14512267E-04  -.12672419E-04  -.10792600E-04  -.88852521E-05  -.69627242E-05
  -.50371983E-05  -.31206193E-05  -.12246274E-05   .63950578E-06   .24609381E-05
   .42293137E-05   .59348153E-05   .75682132E-05   .91209090E-05   .10584974E-04
   .11953186E-04   .13219055E-04   .14376852E-04   .15421623E-04   .16349210E-04
   .17156256E-04   .17840207E-04   .18399320E-04   .18832646E-04   .19140030E-04
   .19322091E-04   .19380204E-04   .19316475E-04   .19133719E-04   .18835421E-04
   .18425709E-04   .17909314E-04   .17291525E-04   .16578155E-04   .15775485E-04
   .14890225E-04   .13929462E-04   .12900608E-04   .11811350E-04   .10669597E-04
   .94834310E-05   .82610489E-05   .70107145E-05   .57407051E-05   .44592612E-05
   .31745364E-05   .18945501E-05   .62714019E-06  -.62008082E-06  -.18397684E-05
  -.30248858E-05  -.41687412E-05  -.52650224E-05  -.63078283E-05  -.72916972E-05
  -.82116324E-05  -.90631239E-05  -.98421674E-05  -.10545279E-04  -.11169508E-04
  -.11712443E-04  -.12172220E-04  -.12547521E-04  -.12837574E-04  -.13042146E-04
  -.13161538E-04  -.13196569E-04  -.13148565E-04  -.13019339E-04  -.12811175E-04
  -.12526802E-04  -.12169371E-04  -.11742426E-04  -.11249877E-04  -.10695971E-04
  -.10085257E-04  -.94225528E-05  -.87129120E-05  -.79615886E-05  -.71740002E-05
  -.63556925E-05  -.55123027E-05  -.46495229E-05  -.37730646E-05  -.28886227E-05
  -.20018410E-05  -.11182782E-05  -.24337511E-06   .61757681E-06   .14594654E-05
   .22773863E-05   .30666696E-05   .38229044E-05   .45419617E-05   .52200151E-05
   .58535589E-05   .64394244E-05   .69747935E-05   .74572103E-05   .78845898E-05
   .82552245E-05   .85677884E-05   .88213388E-05   .90153155E-05   .91495375E-05
   .92241979E-05   .92398562E-05   .91974287E-05   .90981765E-05   .89436921E-05
   .87358839E-05   .84769587E-05   .81694033E-05   .78159643E-05   .74196266E-05
   .69835909E-05   .65112504E-05   .60061664E-05   .54720433E-05   .49127033E-05
   .43320612E-05   .37340976E-05   .31228342E-05   .25023075E-05   .18765438E-05
   .12495342E-05   .62521077E-06   .74229722E-08  -.60008483E-06  -.11936948E-05
  -.17699359E-05  -.23255030E-05  -.28572748E-05  -.33623298E-05  -.38379611E-05
  -.42816902E-05  -.46912777E-05  -.50647339E-05  -.54003269E-05  -.56965888E-05
  -.59523205E-05  -.61665951E-05  -.63387586E-05  -.64684298E-05  -.65554981E-05
  -.66001197E-05  -.66027122E-05  -.65639478E-05  -.64847450E-05  -.63662586E-05
  -.62098689E-05  -.60171693E-05  -.57899532E-05  -.55301992E-05  -.52400560E-05
  -.49218264E-05  -.45779503E-05  -.42109875E-05  -.38235996E-05  -.34185322E-05
  -.29985964E-05  -.25666499E-05  -.21255791E-05  -.16782804E-05  -.12276423E-05
  -.77652724E-06  -.32775462E-06   .11591608E-06   .55180149E-06   .97730969E-06
   .13899549E-05   .17873710E-05   .21673244E-05   .25277259E-05   .28666410E-05
   .31822994E-05   .34731039E-05   .37376366E-05   .39746657E-05   .41831496E-05
   .43622405E-05   .45112865E-05   .46298327E-05   .47176205E-05   .47745864E-05
   .48008593E-05   .47967564E-05   .47627783E-05   .46996034E-05   .46080802E-05
   .44892199E-05   .43441875E-05   .41742918E-05   .39809755E-05   .37658040E-05
   .35304536E-05   .32766997E-05   .30064040E-05   .27215019E-05   .24239892E-05
   .21159089E-05   .17993378E-05   .14763732E-05   .11491195E-05   .81967526E-06
   .49012036E-06   .16250323E-06  -.16117114E-06  -.47895294E-06  -.78895872E-06
  -.10893820E-05  -.13785031E-05  -.16546986E-05  -.19164499E-05  -.21623506E-05
  -.23911139E-05  -.26015785E-05  -.27927136E-05  -.29636238E-05  -.31135521E-05
  -.32418826E-05  -.33481422E-05  -.34320012E-05  -.34932733E-05  -.35319147E-05
  -.35480216E-05  -.35418283E-05  -.35137033E-05  -.34641447E-05  -.33937759E-05
  -.33033392E-05  -.31936900E-05  -.30657893E-05  -.29206967E-05  -.27595622E-05
  -.25836178E-05  -.23941689E-05  -.21925846E-05  -.19802892E-05  -.17587520E-05
  -.15294778E-05  -.12939972E-05  -.10538567E-05  -.81060925E-06  -.56580417E-06
  -.32097807E-06  -.77645478E-07   .16271016E-06   .39864507E-06   .62876349E-06
   .85172547E-06   .10662544E-05   .12711437E-05   .14652634E-05   .16475661E-05
   .18170918E-05   .19729729E-05   .21144380E-05   .22408153E-05   .23515354E-05
   .24461331E-05   .25242492E-05   .25856306E-05   .26301310E-05   .26577098E-05
   .26684311E-05   .26624617E-05   .26400689E-05   .26016172E-05   .25475648E-05
   .24784595E-05   .23949342E-05   .22977017E-05   .21875492E-05   .20653328E-05
   .19319709E-05   .17884378E-05   .16357574E-05   .14749955E-05   .13072536E-05
   .11336608E-05   .95536717E-06   .77353619E-06   .58933739E-06   .40393919E-06
   .21850176E-06   .34170044E-07  -.14793308E-06  -.32671332E-06  -.50111135E-06
  -.67010876E-06  -.83273380E-06  -.98806666E-06  -.11352445E-05  -.12734657E-05
  -.14019946E-05  -.15201643E-05  -.16273804E-05  -.17231237E-05  -.18069520E-05
  -.18785022E-05  -.19374914E-05  -.19837175E-05  -.20170594E-05  -.20374768E-05
  -.20450094E-05  -.20397756E-05  -.20219706E-05  -.19918647E-05  -.19498002E-05
  -.18961885E-05  -.18315070E-05  -.17562951E-05  -.16711501E-05  -.15767227E-05
  -.14737130E-05  -.13628646E-05  -.12449603E-05  -.11208164E-05  -.99127768E-06
  -.85721128E-06  -.71950164E-06  -.57904462E-06  -.43674191E-06  -.29349546E-06
  -.15020193E-06  -.77472335E-08   .13299871E-06   .27118717E-06   .40599551E-06
   .53663194E-06   .66234000E-06   .78240276E-06   .89614676E-06   .10029456E-05
   .11022233E-05   .11934570E-05   .12761800E-05   .13499832E-05   .14145179E-05
   .14694964E-05   .15146933E-05   .15499465E-05   .15751568E-05   .15902884E-05
   .15953679E-05   .15904837E-05   .15757845E-05   .15514781E-05   .15178289E-05
   .14751558E-05   .14238297E-05   .13642708E-05   .12969449E-05   .12223605E-05
   .11410648E-05   .10536404E-05   .96070067E-06   .86288604E-06   .76085962E-06
   .65530288E-06   .54691118E-06   .43638940E-06   .32444744E-06   .21179578E-06
   .99141142E-07  -.12817895E-07  -.12339506E-06  -.23192050E-06  -.33774474E-06
  -.44024245E-06  -.53881602E-06  -.63289896E-06  -.72195905E-06  -.80550121E-06
  -.88307017E-06  -.95425281E-06  -.10186803E-05  -.10760297E-05  -.11260258E-05
  -.11684419E-05  -.12031008E-05  -.12298756E-05  -.12486895E-05  -.12595160E-05
  -.12623783E-05  -.12573489E-05  -.12445484E-05  -.12241441E-05  -.11963487E-05
  -.11614185E-05  -.11196509E-05  -.10713826E-05  -.10169869E-05  -.95687086E-06
  -.89147262E-06  -.82125813E-06  -.74671811E-06  -.66836465E-06  -.58672786E-06
  -.50235232E-06  -.41579359E-06  -.32761463E-06  -.23838221E-06  -.14866337E-06
  -.59021902E-07   .29985139E-07   .11781080E-06   .20392150E-06   .28780026E-06
   .36894963E-06   .44689467E-06   .52118558E-06   .59140025E-06   .65714658E-06
   .71806456E-06   .77382822E-06   .82414719E-06   .86876822E-06   .90747625E-06
   .94009542E-06   .96648967E-06   .98656317E-06   .10002605E-05   .10075665E-05
   .10085060E-05   .10031432E-05   .99158072E-06   .97395883E-06   .95045387E-06
   .92127690E-06   .88667202E-06   .84691443E-06   .80230842E-06   .75318516E-06
   .69990031E-06   .64283158E-06   .58237613E-06   .51894787E-06   .45297471E-06
   .38489573E-06   .31515838E-06   .24421551E-06   .17252259E-06   .10053476E-06
   .28704076E-07  -.42523342E-07  -.11270997E-06  -.18142954E-06  -.24826955E-06
  -.31283371E-06  -.37474422E-06  -.43364391E-06  -.48919825E-06  -.54109720E-06
  -.58905685E-06  -.63282094E-06  -.67216209E-06  -.70688299E-06  -.73681722E-06
  -.76183001E-06  -.78181870E-06  -.79671304E-06  -.80647529E-06  -.81110007E-06
  -.81061408E-06  -.80507556E-06  -.79457359E-06  -.77922720E-06  -.75918431E-06
  -.73462049E-06  -.70573757E-06  -.67276209E-06  -.63594364E-06  -.59555303E-06
  -.55188040E-06  -.50523320E-06  -.45593406E-06  -.40431865E-06  -.35073346E-06
  -.29553348E-06  -.23907993E-06  -.18173795E-06  -.12387427E-06  -.65854917E-07
  -.80429576E-08   .49203751E-07   .10553471E-06   .16060890E-06   .21409677E-06
   .26568220E-06   .31506427E-06   .36195902E-06   .40610100E-06   .44724473E-06
   .48516601E-06   .51966309E-06   .55055764E-06   .57769569E-06   .60094823E-06
   .62021180E-06   .63540884E-06   .64648791E-06   .65342369E-06   .65621688E-06
   .65489394E-06   .64950660E-06   .64013130E-06   .62686844E-06   .60984149E-06
   .58919601E-06   .56509847E-06   .53773502E-06   .50731009E-06   .47404498E-06
   .43817628E-06   .39995420E-06   .35964096E-06   .31750895E-06   .27383900E-06
   .22891848E-06   .18303953E-06   .13649714E-06   .89587304E-07   .42605205E-07
  -.41566455E-08  -.50410165E-07  -.95873446E-07  -.14027243E-06  -.18334253E-06
 12.4721915246208948 T
 Non local Part
 1 2 2.23147056756259232
 17.6342702562362703 -22.4426011321286083 -22.4426011321286083 26.8437599885718150
 Reciprocal Space Part
   .00000000E+00   .10298592E+01   .20484974E+01   .30448583E+01   .40082130E+01
   .49283162E+01   .57955537E+01   .66010798E+01   .73369403E+01   .79961809E+01
   .85729372E+01   .90625076E+01   .94614048E+01   .97673882E+01   .99794744E+01
   .10097928E+02   .10124232E+02   .10061037E+02   .99120969E+01   .96821832E+01
   .93769863E+01   .90030051E+01   .85674248E+01   .80779874E+01   .75428566E+01
   .69704793E+01   .63694474E+01   .57483614E+01   .51156981E+01   .44796859E+01
   .38481883E+01   .32285980E+01   .26277434E+01   .20518087E+01   .15062679E+01
   .99583439E+00   .52442552E+00   .95142931E-01  -.28973214E+00  -.62872892E+00
  -.92116341E+00  -.11671021E+01  -.13673140E+01  -.15232135E+01  -.16367937E+01
  -.17105542E+01  -.17474234E+01  -.17506779E+01  -.17238601E+01  -.16706969E+01
  -.15950193E+01  -.15006863E+01  -.13915126E+01  -.12712029E+01  -.11432927E+01
  -.10110965E+01  -.87766455E+00  -.74574807E+00  -.61777272E+00  -.49582120E+00
  -.38162403E+00  -.27655839E+00  -.18165436E+00  -.97608034E-01  -.24800503E-01
   .36677941E-01   .86999483E-01   .12656721E+00   .15598131E+00   .17600391E+00
   .18752363E+00   .19152049E+00   .18903222E+00   .18112236E+00   .16885107E+00
   .15324890E+00   .13529397E+00   .11589287E+00   .95865374E-01   .75933003E-01
   .56711430E-01   .38706503E-01   .22313698E-01   .78206659E-02  -.45874736E-02
  -.14820518E-01  -.22873672E-01  -.28816595E-01  -.32781466E-01  -.34950506E-01
  -.35543367E-01  -.34804791E-01  -.32992871E-01  -.30368218E-01  -.27184273E-01
  -.23678961E-01  -.20067810E-01  -.16538621E-01  -.13247694E-01  -.10317599E-01
 Real Space Part
   .00000000E+00  -.12870032E+00  -.25466996E+00  -.37521320E+00  -.48770407E+00
  -.58962069E+00  -.67857912E+00  -.75236617E+00  -.80897118E+00  -.84661613E+00
  -.86378393E+00  -.85924416E+00  -.83207610E+00  -.78168818E+00  -.70783361E+00
  -.61062151E+00  -.49052312E+00  -.34837254E+00  -.18536181E+00  -.30298813E-02
   .19675458E+00   .41181660E+00   .63970439E+00   .87772468E+00   .11229833E+01
   .13724307E+01   .16229112E+01   .18712155E+01   .21141354E+01   .23485187E+01
   .25713250E+01   .27796793E+01   .29709225E+01   .31426591E+01   .32927991E+01
   .34195941E+01   .35216662E+01   .35980300E+01   .36481057E+01   .36717243E+01
   .36691240E+01   .36409383E+01   .35881759E+01   .35121935E+01   .34146615E+01
   .32975239E+01   .31629538E+01   .30133047E+01   .28510602E+01   .26787822E+01
   .24990593E+01   .23144570E+01   .21274701E+01   .19404792E+01   .17557116E+01
   .15752077E+01   .14007928E+01   .12340566E+01   .10763374E+01   .92871481E+00
   .79200731E+00   .66677685E+00   .55333863E+00   .45177602E+00   .36195965E+00
   .28356996E+00   .21612246E+00   .15899458E+00   .11145358E+00   .72684348E-01
   .41816709E-01   .17951182E-01   .18288743E-03  -.12377034E-01  -.20582797E-01
  -.25238412E-01  -.27085309E-01  -.26793181E-01  -.24953951E-01  -.22078708E-01
  -.18597343E-01  -.14860585E-01  -.11144081E-01  -.76541321E-02  -.45346781E-02
  -.18751538E-02   .28117789E-03   .19287579E-02   .30914432E-02   .38146634E-02
   .41582392E-02   .41900236E-02   .39804773E-02   .35982356E-02   .31066782E-02
   .25614725E-02   .20090229E-02   .14857341E-02   .10179716E-02   .62259396E-03
 Reciprocal Space Part
   .00000000E+00   .12269204E+01   .24355817E+01   .36079776E+01   .47266046E+01
   .57747047E+01   .67364974E+01   .75973993E+01   .83442260E+01   .89653758E+01
   .94509906E+01   .97930927E+01   .99856955E+01   .10024886E+02   .99088772E+01
   .96380329E+01   .92148580E+01   .86439608E+01   .79319845E+01   .70875077E+01
   .61209189E+01   .50442623E+01   .38710608E+01   .26161170E+01   .12952942E+01
  -.74716397E-01  -.14766417E+01  -.28928809E+01  -.43057628E+01  -.56978050E+01
  -.70519676E+01  -.83518997E+01  -.95821734E+01  -.10728502E+02  -.11777941E+02
  -.12719059E+02  -.13542094E+02  -.14239073E+02  -.14803905E+02  -.15232443E+02
  -.15522511E+02  -.15673903E+02  -.15688344E+02  -.15569425E+02  -.15322506E+02
  -.14954592E+02  -.14474180E+02  -.13891090E+02  -.13216274E+02  -.12461610E+02
  -.11639684E+02  -.10763568E+02  -.98465924E+01  -.89021246E+01  -.79433473E+01
  -.69830517E+01  -.60334414E+01  -.51059550E+01  -.42111071E+01  -.33583529E+01
  -.25559762E+01  -.18110041E+01  -.11291474E+01  -.51476902E+00   .29121908E-01
   .50084927E+00   .90002529E+00   .12274829E+01   .14851882E+01   .16761342E+01
   .18042215E+01   .18741258E+01   .18911575E+01   .18611175E+01   .17901498E+01
   .16845968E+01   .15508592E+01   .13952633E+01   .12239386E+01   .10427080E+01
   .85699128E+00   .67172502E+00   .49129864E+00   .31950729E+00   .15952189E+00
   .13875885E-01  -.11553214E+00  -.22742099E+00  -.32109595E+00  -.39640617E+00
  -.45369216E+00  -.49372548E+00  -.51764271E+00  -.52687581E+00  -.52308103E+00
  -.50806833E+00  -.48373323E+00  -.45199276E+00  -.41472689E+00  -.37372684E+00
 Real Space Part
   .00000000E+00  -.30285409E+01  -.60240798E+01  -.89540583E+01  -.11786799E+02
  -.14491933E+02  -.17040802E+02  -.19406850E+02  -.21565970E+02  -.23496829E+02
  -.25181147E+02  -.26603932E+02  -.27753674E+02  -.28622477E+02  -.29206149E+02
  -.29504227E+02  -.29519951E+02  -.29260183E+02  -.28735264E+02  -.27958819E+02
  -.26947518E+02  -.25720778E+02  -.24300434E+02  -.22710361E+02  -.20976079E+02
  -.19124322E+02  -.17182599E+02  -.15178746E+02  -.13140479E+02  -.11094955E+02
  -.90683513E+01  -.70854723E+01  -.51693880E+01  -.33411126E+01  -.16193292E+01
  -.20165469E-01   .14429765E+01   .27595334E+01   .39218361E+01   .49251070E+01
   .57674017E+01   .64494968E+01   .69747292E+01   .73487908E+01   .75794851E+01
   .76764531E+01   .76508749E+01   .75151556E+01   .72826026E+01   .69671031E+01
   .65828078E+01   .61438296E+01   .56639627E+01   .51564268E+01   .46336436E+01
   .41070460E+01   .35869248E+01   .30823139E+01   .26009133E+01   .21490502E+01
   .17316759E+01   .13523962E+01   .10135321E+01   .71620584E+00   .46044933E+00
   .24532913E+00   .69083629E-01  -.70732568E-01  -.17710160E+00  -.25339706E+00
  -.30324448E+00  -.33039079E+00  -.33858592E+00  -.33147852E+00  -.31252749E+00
  -.28493028E+00  -.25156826E+00  -.21496883E+00  -.17728370E+00  -.14028182E+00
  -.10535567E+00  -.73538915E-01  -.45533329E-01  -.21743032E-01  -.23137439E-02
   .12824916E-01   .23916057E-01   .31332782E-01   .35537590E-01   .37045149E-01
   .36389365E-01   .34095401E-01   .30657028E-01   .26519393E-01   .22067085E-01
   .17617170E-01   .13416691E-01   .96440191E-02   .64133593E-02   .37816761E-02
 Non local Part
 0 2 2.23147056756259232
 2.32547747142403161 -0.260534171370494394 -0.260534171370494394 0.451679691693489954E-01
 Reciprocal Space Part
   .30891231E+02   .30825527E+02   .30629115E+02   .30304077E+02   .29853849E+02
   .29283166E+02   .28597996E+02   .27805442E+02   .26913644E+02   .25931650E+02
   .24869291E+02   .23737029E+02   .22545816E+02   .21306929E+02   .20031823E+02
   .18731967E+02   .17418696E+02   .16103063E+02   .14795701E+02   .13506695E+02
   .12245471E+02   .11020689E+02   .98401631E+01   .87107922E+01   .76385063E+01
   .66282346E+01   .56838883E+01   .48083615E+01   .40035476E+01   .32703720E+01
   .26088384E+01   .20180873E+01   .14964668E+01   .10416107E+01   .65052570E+00
   .31968228E+00   .45109867E-01  -.17750715E+00  -.35273392E+00  -.48529198E+00
  -.57997018E+00  -.64154101E+00  -.67468380E+00  -.68391569E+00  -.67353128E+00
  -.64755161E+00  -.60968264E+00  -.56328371E+00  -.51134550E+00  -.45647753E+00
  -.40090456E+00  -.34647117E+00  -.29465398E+00  -.24658038E+00  -.20305284E+00
  -.16457786E+00  -.13139829E+00  -.10352818E+00  -.80788907E-01  -.62845685E-01
  -.49243513E-01  -.39441723E-01  -.32846380E-01  -.28839932E-01  -.26807607E-01
  -.26160199E-01  -.26352990E-01  -.26900709E-01  -.27388517E-01  -.27479136E-01
  -.26916341E-01  -.25525084E-01  -.23208644E-01  -.19943196E-01  -.15770268E-01
  -.10787553E-01  -.51385684E-02   .99837739E-03   .74214453E-02   .13916347E-01
   .20266866E-01   .26264505E-01   .31716984E-01   .36455399E-01   .40339891E-01
   .43263754E-01   .45155958E-01   .45982133E-01   .45744092E-01   .44478028E-01
   .42251560E-01   .39159803E-01   .35320694E-01   .30869787E-01   .25954741E-01
   .20729731E-01   .15349969E-01   .99665409E-02   .47217154E-02  -.25514935E-03
 Real Space Part
   .78204126E+01   .78191262E+01   .78152507E+01   .78087371E+01   .77995039E+01
   .77874378E+01   .77723939E+01   .77541973E+01   .77326437E+01   .77075011E+01
   .76785119E+01   .76453950E+01   .76078486E+01   .75655535E+01   .75181772E+01
   .74653776E+01   .74068084E+01   .73421240E+01   .72709856E+01   .71930672E+01
   .71080622E+01   .70156901E+01   .69157033E+01   .68078941E+01   .66921012E+01
   .65682163E+01   .64361900E+01   .62960371E+01   .61478415E+01   .59917598E+01
   .58280241E+01   .56569439E+01   .54789063E+01   .52943753E+01   .51038897E+01
   .49080597E+01   .47075621E+01   .45031343E+01   .42955672E+01   .40856968E+01
   .38743950E+01   .36625597E+01   .34511041E+01   .32409454E+01   .30329941E+01
   .28281423E+01   .26272528E+01   .24311486E+01   .22406028E+01   .20563298E+01
   .18789766E+01   .17091164E+01   .15472427E+01   .13937648E+01   .12490052E+01
   .11131981E+01   .98648913E+00   .86893733E+00   .76051748E+00   .66112438E+00
   .57057802E+00   .48862980E+00   .41496954E+00   .34923324E+00   .29101121E+00
   .23985664E+00   .19529413E+00   .15682830E+00   .12395206E+00   .96154572E-01
   .72928625E-01   .53777407E-01   .38220537E-01   .25799276E-01   .16080895E-01
   .86621551E-02   .31719053E-02  -.72717886E-03  -.33376813E-02  -.49272980E-02
  -.57293835E-02  -.59441117E-02  -.57401572E-02  -.52568042E-02  -.46063834E-02
  -.38769411E-02  -.31350471E-02  -.24286550E-02  -.17899348E-02  -.12380100E-02
  -.78153942E-03  -.42109685E-03  -.15131378E-03   .37239530E-04   .15644693E-03
   .21931602E-03   .23891791E-03   .22758297E-03   .19633169E-03   .15451528E-03
 Reciprocal Space Part
   .33550681E+02   .33812375E+02   .34591872E+02   .35872530E+02   .37627013E+02
   .39817868E+02   .42398330E+02   .45313313E+02   .48500580E+02   .51892055E+02
   .55415262E+02   .58994832E+02   .62554075E+02   .66016556E+02   .69307657E+02
   .72356083E+02   .75095276E+02   .77464718E+02   .79411085E+02   .80889229E+02
   .81862982E+02   .82305744E+02   .82200873E+02   .81541843E+02   .80332199E+02
   .78585289E+02   .76323805E+02   .73579130E+02   .70390519E+02   .66804142E+02
   .62871992E+02   .58650716E+02   .54200369E+02   .49583142E+02   .44862079E+02
   .40099823E+02   .35357409E+02   .30693134E+02   .26161530E+02   .21812455E+02
   .17690318E+02   .13833453E+02   .10273652E+02   .70358596E+01   .41380238E+01
   .15911135E+01  -.60071827E+00  -.24398275E+01  -.39346460E+01  -.50991363E+01
  -.59521535E+01  -.65167335E+01  -.68193272E+01  -.68890041E+01  -.67566429E+01
  -.64541318E+01  -.60135961E+01  -.54666704E+01  -.48438314E+01  -.41738038E+01
  -.34830492E+01  -.27953474E+01  -.21314729E+01  -.15089706E+01  -.94202874E+00
  -.44144740E+00  -.14695894E-01   .33394778E+00   .60318485E+00   .79442170E+00
   .91144562E+00   .96006271E+00   .94771062E+00   .88305876E+00   .77560807E+00
   .63530180E+00   .47215761E+00   .29593007E+00   .11581120E+00  -.59825123E-01
  -.22363031E+00  -.36943748E+00  -.49236607E+00  -.58887540E+00  -.65676950E+00
  -.69515669E+00  -.70436865E+00  -.68584472E+00  -.64198771E+00  -.57599816E+00
  -.49169399E+00  -.39332278E+00  -.28537329E+00  -.17239282E+00  -.58816005E-01
   .51189820E-01   .15385861E+00   .24593578E+00   .32476232E+00   .38833187E+00
 Real Space Part
   .87029908E+02   .87025590E+02   .87011422E+02   .86983779E+02   .86936711E+02
   .86862078E+02   .86749733E+02   .86587753E+02   .86362711E+02   .86059994E+02
   .85664140E+02   .85159212E+02   .84529185E+02   .83758341E+02   .82831676E+02
   .81735294E+02   .80456790E+02   .78985609E+02   .77313380E+02   .75434207E+02
   .73344922E+02   .71045279E+02   .68538101E+02   .65829358E+02   .62928191E+02
   .59846866E+02   .56600661E+02   .53207694E+02   .49688688E+02   .46066679E+02
   .42366674E+02   .38615261E+02   .34840186E+02   .31069902E+02   .27333101E+02
   .23658232E+02   .20073032E+02   .16604065E+02   .13276280E+02   .10112614E+02
   .71336245E+01   .43571822E+01   .17982126E+01  -.53149687E+00  -.26234249E+01
  -.44723786E+01  -.60764874E+01  -.74371313E+01  -.85588070E+01  -.94489350E+01
  -.10117614E+02  -.10577334E+02  -.10842643E+02  -.10929800E+02  -.10856393E+02
  -.10640961E+02  -.10302606E+02  -.98606199E+01  -.93341255E+01  -.87417440E+01
  -.81012926E+01  -.74295202E+01  -.67418831E+01  -.60523659E+01  -.53733473E+01
  -.47155124E+01  -.40878091E+01  -.34974484E+01  -.29499434E+01  -.24491837E+01
  -.19975416E+01  -.15960024E+01  -.12443153E+01  -.94115822E+00  -.68431067E+00
  -.47082976E+00  -.29722390E+00  -.15961971E+00  -.53918149E-01   .24063341E-01
   .78465312E-01   .11327905E+00   .13225869E+00   .13885294E+00   .13615609E+00
   .12687735E+00   .11332705E+00   .97417913E-01   .80679192E-01   .64281420E-01
   .49069340E-01   .35600636E-01   .24188174E-01   .14943648E-01   .78207420E-02
   .26562223E-02  -.79234524E-03  -.28132139E-02  -.37120679E-02  -.37889715E-02
 Non local Part
 2 2 2.23147056756259232
 14.9852838803581498 17.3354969632491631 17.3354969632491631 19.8519357845737403
 Reciprocal Space Part
   .00000000E+00   .25278802E-01   .10065810E+00   .22477515E+00   .39538722E+00
   .60941369E+00   .86299380E+00   .11515590E+01   .14699179E+01   .18123535E+01
   .21727282E+01   .25445979E+01   .29213295E+01   .32962220E+01   .36626278E+01
   .40140711E+01   .43443633E+01   .46477104E+01   .49188127E+01   .51529541E+01
   .53460783E+01   .54948531E+01   .55967190E+01   .56499234E+01   .56535386E+01
   .56074651E+01   .55124178E+01   .53698989E+01   .51821557E+01   .49521258E+01
   .46833701E+01   .43799968E+01   .40465754E+01   .36880459E+01   .33096221E+01
   .29166933E+01   .25147247E+01   .21091597E+01   .17053257E+01   .13083443E+01
   .92304895E+00   .55391051E+00   .20497190E+00  -.12020645E+00  -.41859021E+00
  -.68770320E+00  -.92564748E+00  -.11311117E+01  -.13033678E+01  -.14422569E+01
  -.15481647E+01  -.16219872E+01  -.16650888E+01  -.16792528E+01  -.16666259E+01
  -.16296591E+01  -.15710448E+01  -.14936531E+01  -.14004673E+01  -.12945212E+01
  -.11788386E+01  -.10563766E+01  -.92997373E+00  -.80230290E+00  -.67583156E+00
  -.55278800E+00  -.43513494E+00  -.32455045E+00  -.22241612E+00  -.12981233E+00
  -.47520415E-01   .23968992E-01   .84441706E-01   .13394077E+00   .17274288E+00
   .20133139E+00   .22036663E+00   .23065456E+00   .23311444E+00   .22874654E+00
   .21860053E+00   .20374530E+00   .18524091E+00   .16411308E+00   .14133084E+00
   .11778747E+00   .94285150E-01   .71523323E-01   .50090789E-01   .30461503E-01
   .12993857E-01  -.20668021E-02  -.14582749E-01  -.24515923E-01  -.31917869E-01
  -.36918037E-01  -.39710887E-01  -.40542294E-01  -.39695681E-01  -.37478328E-01
 Real Space Part
   .00000000E+00  -.16416011E-01  -.65190388E-01  -.14491494E+00  -.25328489E+00
  -.38716094E+00  -.54265365E+00  -.71522778E+00  -.89982356E+00  -.10909916E+01
  -.12830374E+01  -.14701719E+01  -.16466632E+01  -.18069861E+01  -.19459645E+01
  -.20589038E+01  -.21417091E+01  -.21909863E+01  -.22041239E+01  -.21793537E+01
  -.21157879E+01  -.20134340E+01  -.18731855E+01  -.16967906E+01  -.14867998E+01
  -.12464935E+01  -.97979303E+00  -.69115782E+00  -.38547084E+00  -.67916849E-01
   .25614386E+00   .58130239E+00   .90222562E+00   .12137748E+01   .15111154E+01
   .17898155E+01   .20459314E+01   .22760769E+01   .24774770E+01   .26480048E+01
   .27862000E+01   .28912712E+01   .29630820E+01   .30021213E+01   .30094609E+01
   .29867005E+01   .29359037E+01   .28595260E+01   .27603384E+01   .26413471E+01
   .25057136E+01   .23566759E+01   .21974732E+01   .20312764E+01   .18611246E+01
   .16898699E+01   .15201316E+01   .13542587E+01   .11943027E+01   .10420002E+01
   .89876438E+00   .76568527E+00   .64353827E+00   .53279948E+00   .43366717E+00
   .34608800E+00   .26978696E+00   .20429979E+00   .14900667E+00   .10316622E+00
   .65948714E-01   .36467703E-01   .13809278E-01  -.29415651E-02  -.14677931E-01
  -.22251656E-01  -.26457716E-01  -.28022404E-01  -.27595159E-01  -.25743826E-01
  -.22953035E-01  -.19625336E-01  -.16084653E-01  -.12581635E-01  -.93004380E-02
  -.63665090E-02  -.38549440E-02  -.17990538E-02  -.19879492E-03   .97121063E-03
   .17542944E-02   .22051655E-02   .23842517E-02   .23530169E-02   .21702660E-02
   .18894064E-02   .15566019E-02   .12097269E-02   .87801145E-03   .58225373E-03
 Reciprocal Space Part
   .00000000E+00  -.23243065E-01  -.92360503E-01  -.20552880E+00  -.35974770E+00
  -.55089797E+00  -.77382081E+00  -.10224176E+01  -.12897685E+01  -.15682671E+01
  -.18497699E+01  -.21257570E+01  -.23875014E+01  -.26262449E+01  -.28333754E+01
  -.30006040E+01  -.31201386E+01  -.31848495E+01  -.31884249E+01  -.31255132E+01
  -.29918488E+01  -.27843593E+01  -.25012509E+01  -.21420720E+01  -.17077512E+01
  -.12006101E+01  -.62435037E+00   .15986467E-01   .71408419E+00   .14624426E+01
   .22524917E+01   .30747274E+01   .39188669E+01   .47740205E+01   .56288765E+01
   .64718969E+01   .72915187E+01   .80763575E+01   .88154103E+01   .94982520E+01
   .10115223E+02   .10657601E+02   .11117763E+02   .11489317E+02   .11767219E+02
   .11947861E+02   .12029136E+02   .12010464E+02   .11892806E+02   .11678630E+02
   .11371866E+02   .10977818E+02   .10503060E+02   .99553063E+01   .93432602E+01
   .86764446E+01   .79650207E+01   .72195955E+01   .64510239E+01   .56702089E+01
   .48879048E+01   .41145268E+01   .33599712E+01   .26334499E+01   .19433426E+01
   .12970690E+01   .70098463E+00   .16029991E+00  -.32097393E+00  -.74005319E+00
  -.10953836E+01  -.13866164E+01  -.16145604E+01  -.17811109E+01  -.18891585E+01
  -.19424800E+01  -.19456150E+01  -.19037306E+01  -.18224786E+01  -.17078487E+01
  -.15660205E+01  -.14032187E+01  -.12255743E+01  -.10389956E+01  -.84905038E+00
  -.66086305E+00  -.47902778E+00  -.30753944E+00  -.14974300E+00  -.83020556E-02
   .11481381E+00   .21832339E+00   .30161091E+00   .36468733E+00   .40813775E+00
   .43305686E+00   .44097511E+00   .43377777E+00   .41361976E+00   .38283868E+00
 Real Space Part
   .00000000E+00   .11201173E+00   .44564025E+00   .99372141E+00   .17444994E+01
   .26818986E+01   .37858943E+01   .50329726E+01   .63966681E+01   .78481661E+01
   .93569524E+01   .10891497E+02   .12419952E+02   .13910849E+02   .15333778E+02
   .16660027E+02   .17863182E+02   .18919652E+02   .19809123E+02   .20514933E+02
   .21024348E+02   .21328740E+02   .21423678E+02   .21308904E+02   .20988231E+02
   .20469338E+02   .19763490E+02   .18885183E+02   .17851728E+02   .16682786E+02
   .15399862E+02   .14025787E+02   .12584177E+02   .11098908E+02   .95936021E+01
   .80911445E+01   .66132406E+01   .51800206E+01   .38097007E+01   .25183062E+01
   .13194599E+01   .22423812E+00  -.75890690E+00  -.16241583E+01  -.23682845E+01
  -.29905319E+01  -.34924667E+01  -.38777730E+01  -.41520152E+01  -.43223728E+01
  -.43973565E+01  -.43865140E+01  -.43001337E+01  -.41489543E+01  -.39438875E+01
  -.36957591E+01  -.34150752E+01  -.31118168E+01  -.27952654E+01  -.24738626E+01
  -.21551047E+01  -.18454702E+01  -.15503817E+01  -.12741976E+01  -.10202337E+01
  -.79080789E+00  -.58730803E+00  -.41027573E+00  -.25950384E+00  -.13414275E+00
  -.32811509E-01   .46289833E-01   .10527023E+00   .14644297E+00   .17222879E+00
   .18506891E+00   .18734935E+00   .18133753E+00   .16913167E+00   .15262277E+00
   .13346905E+00   .11308171E+00   .92621204E-01   .73002514E-01   .54908132E-01
   .38807058E-01   .24978358E-01   .13537708E-01   .44655169E-02  -.23646736E-02
  -.71586289E-02  -.10175650E-01  -.11705322E-01  -.12047311E-01  -.11494548E-01
  -.10319943E-01  -.87666006E-02  -.70413847E-02  -.53115251E-02  -.37039088E-02
 PAW radial sets
 333 1.26577506924656746
(5E20.12)                                
 augmentation charges (non sperical)
   .755298758289E+00  -.771108689337E+00  -.179271448371E+00   .267567785899E-01   .470295549745E+00
   .447192211777E+00  -.771108689337E+00   .739145076352E+00   .126890567586E+00  -.254671000925E-01
  -.485746109817E+00  -.436484108699E+00  -.179271448371E+00   .126890567586E+00  -.226782988695E-01
  -.488334097276E-02  -.116016757419E+00  -.822384362546E-01   .267567785899E-01  -.254671000925E-01
  -.488334097276E-02   .685349082567E-03   .179278011172E-01   .149994707110E-01   .470295549745E+00
  -.485746109817E+00  -.116016757419E+00   .179278011172E-01   .338002121950E+00   .326957689945E+00
   .447192211777E+00  -.436484108699E+00  -.822384362546E-01   .149994707110E-01   .326957689945E+00
   .305152141710E+00
 uccopancies in atom
   .200000000056E+01   .000000000000E+00   .000000000000E+00   .000000000000E+00   .000000000000E+00
   .000000000000E+00   .000000000000E+00   .000000000000E+00   .000000000000E+00   .000000000000E+00
   .000000000000E+00   .000000000000E+00   .000000000000E+00   .000000000000E+00   .200000000330E+01
   .000000000000E+00   .000000000000E+00   .000000000000E+00   .000000000000E+00   .000000000000E+00
   .000000000000E+00   .000000000000E+00   .000000000000E+00   .000000000000E+00   .000000000000E+00
   .000000000000E+00   .000000000000E+00   .000000000000E+00   .000000000000E+00   .000000000000E+00
   .000000000000E+00   .000000000000E+00   .000000000000E+00   .000000000000E+00   .000000000000E+00
   .000000000000E+00
 grid
   .397732746479E-04   .410666023172E-04   .424019857759E-04   .437807925734E-04   .452044347281E-04
   .466743701742E-04   .481921042540E-04   .497591912597E-04   .513772360255E-04   .530478955705E-04
   .547728807961E-04   .565539582380E-04   .583929518750E-04   .602917449974E-04   .622522821352E-04
   .642765710498E-04   .663666847899E-04   .685247638147E-04   .707530181855E-04   .730537298297E-04
   .754292548770E-04   .778820260727E-04   .804145552686E-04   .830294359962E-04   .857293461217E-04
   .885170505890E-04   .913954042511E-04   .943673547937E-04   .974359457539E-04   .100604319637E-03
   .103875721134E-03   .107253500447E-03   .110741116717E-03   .114342141568E-03   .118060262763E-03
   .121899287983E-03   .125863148727E-03   .129955904333E-03   .134181746142E-03   .138545001784E-03
   .143050139615E-03   .147701773288E-03   .152504666485E-03   .157463737786E-03   .162584065715E-03
   .167870893935E-03   .173329636619E-03   .178965883997E-03   .184785408079E-03   .190794168567E-03
   .196998318955E-03   .203404212837E-03   .210018410407E-03   .216847685182E-03   .223899030935E-03
   .231179668861E-03   .238697054970E-03   .246458887721E-03   .254473115910E-03   .262747946807E-03
   .271291854561E-03   .280113588881E-03   .289222183993E-03   .298626967896E-03   .308337571908E-03
   .318363940539E-03   .328716341664E-03   .339405377048E-03   .350441993197E-03   .361837492570E-03
   .373603545154E-03   .385752200415E-03   .398295899639E-03   .411247488668E-03   .424620231063E-03
   .438427821679E-03   .452684400697E-03   .467404568098E-03   .482603398620E-03   .498296457195E-03
   .514499814886E-03   .531230065346E-03   .548504341814E-03   .566340334659E-03   .584756309495E-03
   .603771125892E-03   .623404256681E-03   .643675807905E-03   .664606539403E-03   .686217886074E-03
   .708531979825E-03   .731571672238E-03   .755360557971E-03   .779922998922E-03   .805284149177E-03
   .831469980770E-03   .858507310281E-03   .886423826297E-03   .915248117771E-03   .945009703296E-03
   .975739061337E-03   .100746766144E-02   .104022799647E-02   .107405361586E-02   .110897916001E-02
   .114504039573E-02   .118227425287E-02   .122071886216E-02   .126041359424E-02   .130139909998E-02
   .134371735211E-02   .138741168824E-02   .143252685517E-02   .147910905479E-02   .152720599132E-02
   .157686692025E-02   .162814269869E-02   .168108583753E-02   .173575055517E-02   .179219283306E-02
   .185047047302E-02   .191064315644E-02   .197277250542E-02   .203692214583E-02   .210315777251E-02
   .217154721653E-02   .224216051467E-02   .231506998110E-02   .239035028149E-02   .246807850945E-02
   .254833426547E-02   .263119973847E-02   .271675978993E-02   .280510204081E-02   .289631696130E-02
   .299049796346E-02   .308774149685E-02   .318814714735E-02   .329181773913E-02   .339885943992E-02
   .350938186979E-02   .362349821336E-02   .374132533574E-02   .386298390219E-02   .398859850172E-02
   .411829777466E-02   .425221454440E-02   .439048595341E-02   .453325360369E-02   .468066370180E-02
   .483286720855E-02   .499001999364E-02   .515228299526E-02   .531982238489E-02   .549280973751E-02
   .567142220729E-02   .585584270901E-02   .604626010536E-02   .624286940041E-02   .644587193926E-02
   .665547561424E-02   .687189507784E-02   .709535196249E-02   .732607510757E-02   .756430079374E-02
   .781027298494E-02   .806424357816E-02   .832647266149E-02   .859722878043E-02   .887678921291E-02
   .916544025324E-02   .946347750529E-02   .977120618528E-02   .100889414342E-01   .104170086409E-01
   .107557437746E-01   .111054937298E-01   .114666166811E-01   .118394824499E-01   .122244728833E-01
   .126219822451E-01   .130324176197E-01   .134561993288E-01   .138937613619E-01   .143455518206E-01
   .148120333781E-01   .152936837520E-01   .157909961946E-01   .163044799971E-01   .168346610119E-01
   .173820821907E-01   .179473041405E-01   .185309056981E-01   .191334845225E-01   .197556577069E-01
   .203980624112E-01   .210613565139E-01   .217462192861E-01   .224533520871E-01   .231834790827E-01
   .239373479867E-01   .247157308269E-01   .255194247352E-01   .263492527644E-01   .272060647309E-01
   .280907380852E-01   .290041788099E-01   .299473223482E-01   .309211345615E-01   .319266127187E-01
   .329647865171E-01   .340367191376E-01   .351435083327E-01   .362862875513E-01   .374662270993E-01
   .386845353378E-01   .399424599208E-01   .412412890732E-01   .425823529094E-01   .439670247961E-01
   .453967227581E-01   .468729109313E-01   .483971010611E-01   .499708540516E-01   .515957815634E-01
   .532735476641E-01   .550058705329E-01   .567945242197E-01   .586413404623E-01   .605482105619E-01
   .625170873201E-01   .645499870387E-01   .666489915846E-01   .688162505221E-01   .710539833135E-01
   .733644815929E-01   .757501115123E-01   .782133161652E-01   .807566180886E-01   .833826218457E-01
   .860940166939E-01   .888935793385E-01   .917841767762E-01   .947687692315E-01   .978504131877E-01
   .101032264518E+00   .104317581715E+00   .107709729232E+00   .111212180924E+00   .114828523607E+00
   .118562460732E+00   .122417816178E+00   .126398538165E+00   .130508703301E+00   .134752520753E+00
   .139134336561E+00   .143658638088E+00   .148330058614E+00   .153153382082E+00   .158133547997E+00
   .163275656483E+00   .168584973508E+00   .174066936279E+00   .179727158803E+00   .185571437643E+00
   .191605757851E+00   .197836299098E+00   .204269442003E+00   .210911774667E+00   .217770099419E+00
   .224851439782E+00   .232163047668E+00   .239712410802E+00   .247507260392E+00   .255555579045E+00
   .263865608943E+00   .272445860281E+00   .281305119988E+00   .290452460720E+00   .299897250152E+00
   .309649160575E+00   .319718178797E+00   .330114616372E+00   .340849120161E+00   .351932683234E+00
   .363376656128E+00   .375192758472E+00   .387393090986E+00   .399990147877E+00   .412996829633E+00
   .426426456231E+00   .440292780784E+00   .454610003619E+00   .469392786823E+00   .484656269259E+00
   .500416082066E+00   .516688364669E+00   .533489781309E+00   .550837538102E+00   .568749400670E+00
   .587243712324E+00   .606339412854E+00   .626056057929E+00   .646413839114E+00   .667433604556E+00
   .689136880333E+00   .711545892495E+00   .734683589829E+00   .758573667359E+00   .783240590612E+00
   .808709620672E+00   .835006840053E+00   .862159179404E+00   .890194445094E+00   .919141347685E+00
   .949029531335E+00   .979889604155E+00   .101175316956E+01   .104465285861E+01   .107862236349E+01
   .111369647191E+01   .114991110285E+01   .118730334323E+01   .122591148600E+01   .126577506925E+01
   .130693491678E+01   .134943317987E+01   .139331338045E+01   .143862045569E+01   .148540080399E+01
   .153370233252E+01   .158357450625E+01   .163506839866E+01
 aepotential
   .184477991747E+05   .184918176692E+05   .185025028379E+05   .184797126331E+05   .184235377279E+05
   .183343884090E+05   .182128926909E+05   .180598967951E+05   .178765252634E+05   .176640532289E+05
   .174239904065E+05   .171580077504E+05   .168679213791E+05   .165556727186E+05   .162232937324E+05
   .158729229941E+05   .155066814054E+05   .151267818956E+05   .147353497047E+05   .143345668646E+05
   .139265123115E+05   .135132212710E+05   .130966082859E+05   .126785216413E+05   .122606804932E+05
   .118446947573E+05   .114320275823E+05   .110240208682E+05   .106218785879E+05   .102266677082E+05
   .983932439784E+04   .946065248785E+04   .909133224226E+04   .873192358912E+04   .838287521707E+04
   .804453083192E+04   .771713771099E+04   .740085501704E+04   .709576215699E+04   .680186718805E+04
   .651911500216E+04   .624739521694E+04   .598654969293E+04   .573637961624E+04   .549665206405E+04
   .526710614060E+04   .504745843561E+04   .483740814361E+04   .463664148801E+04   .444483568520E+04
   .426166258629E+04   .408679176859E+04   .391989242562E+04   .376063705695E+04   .360870183169E+04
   .346377018043E+04   .332553003323E+04   .319368044551E+04   .306792813333E+04   .294798827073E+04
   .283358873222E+04   .272446555521E+04   .262036576883E+04   .252104684063E+04   .242627696654E+04
   .233583404734E+04   .224950641931E+04   .216709211137E+04   .208839929753E+04   .201324421200E+04
   .194145328931E+04   .187286089320E+04   .180730981698E+04   .174465097857E+04   .168474263020E+04
   .162745036659E+04   .157264656222E+04   .152021057511E+04   .147002737871E+04   .142198843469E+04
   .137599058972E+04   .133193601498E+04   .128973195629E+04   .124929057294E+04   .121052848155E+04
   .117336653266E+04   .113772976428E+04   .110354698191E+04   .107075060830E+04   .103927684575E+04
   .100906418271E+04   .980055676783E+03   .952195896024E+03   .925432954427E+03   .899717374091E+03
   .875001942856E+03   .851242136650E+03   .828395240533E+03   .806420963050E+03   .785280716673E+03
   .764937882586E+03   .745357647705E+03   .726506746664E+03   .708353607622E+03   .690868090385E+03
   .674021414277E+03   .657786280697E+03   .642136465616E+03   .627047161340E+03   .612494493085E+03
   .598455820073E+03   .584909394122E+03   .571834549022E+03   .559211447856E+03   .547021186443E+03
   .535245637839E+03   .523867482703E+03   .512870146884E+03   .502237740562E+03   .491955068366E+03
   .482007544579E+03   .472381209254E+03   .463062658950E+03   .454039035928E+03   .445298005939E+03
   .436827715234E+03   .428616779909E+03   .420654276842E+03   .412929642847E+03   .405432801571E+03
   .398153976026E+03   .391083822821E+03   .384213255421E+03   .377533598698E+03   .371036433472E+03
   .364713638948E+03   .358557401384E+03   .352560147902E+03   .346714558115E+03   .341013569929E+03
   .335450330200E+03   .330018205122E+03   .324710778059E+03   .319521812946E+03   .314445268747E+03
   .309475275118E+03   .304606128629E+03   .299832288831E+03   .295148362705E+03   .290549099798E+03
   .286029386728E+03   .281584238845E+03   .277208792282E+03   .272898302679E+03   .268648132140E+03
   .264453751500E+03   .260310728863E+03   .256214729043E+03   .252161506336E+03   .248146903330E+03
   .244166843037E+03   .240217329670E+03   .236294442823E+03   .232394335205E+03   .228513230689E+03
   .224647421292E+03   .220793266699E+03   .216947190952E+03   .213105683392E+03   .209265296335E+03
   .205422645836E+03   .201574411571E+03   .197717337219E+03   .193848230444E+03   .189963968273E+03
   .186061492914E+03   .182137820371E+03   .178190039717E+03   .174215317631E+03   .170210904654E+03
   .166174134870E+03   .162102439988E+03   .157993347111E+03   .153844490917E+03   .149653621342E+03
   .145418611327E+03   .141137466809E+03   .136808339358E+03   .132429536823E+03   .127999537719E+03
   .123517005941E+03   .118980806675E+03   .114390025257E+03   .109743986086E+03   .105042274691E+03
   .100284760808E+03   .954716248342E+02   .906033850735E+02   .856809282479E+02   .807055421661E+02
   .756789505144E+02   .706033497962E+02   .654814477831E+02   .603165031588E+02   .551123654701E+02
   .498735130433E+02   .446050883862E+02   .393129271416E+02   .340035774616E+02   .286843062935E+02
   .233630846865E+02   .180485490822E+02   .127499279794E+02   .747692825311E+01   .223957368277E+01
  -.295201049659E+01  -.808786671609E+01  -.131585226543E+02  -.181553384225E+02  -.230708469251E+02
  -.278990277176E+02  -.326354225127E+02  -.372769685075E+02  -.418213973354E+02  -.462660441137E+02
  -.506059547319E+02  -.548313128639E+02  -.589244337134E+02  -.628569289807E+02  -.665879690883E+02
  -.700647787506E+02  -.732262986420E+02  -.760102521161E+02  -.783627818781E+02  -.802487817521E+02
  -.816605202671E+02  -.826223329017E+02  -.831898872791E+02  -.834435859817E+02  -.834771045955E+02
  -.833837856041E+02  -.832447501655E+02  -.831220319241E+02  -.830576986533E+02  -.830774058607E+02
  -.831956136122E+02  -.834202328117E+02  -.837556828739E+02  -.842044432859E+02  -.847676201521E+02
  -.854450953030E+02  -.862356073818E+02  -.871368951659E+02  -.881459260995E+02  -.892591417064E+02
  -.904726862788E+02  -.917825678156E+02  -.931847561139E+02  -.946751961443E+02  -.962497654702E+02
  -.979041680593E+02  -.996337755914E+02  -.101433416604E+03  -.103297115304E+03  -.105217777891E+03
  -.107186833273E+03  -.109193845790E+03  -.111226140148E+03  -.113268511685E+03  -.115303142564E+03
  -.117309897137E+03  -.119267215089E+03  -.121153838226E+03  -.122951565751E+03  -.124649085018E+03
  -.126246589051E+03  -.127760158618E+03  -.129223275312E+03  -.130679971442E+03  -.132160959474E+03
  -.133637141887E+03  -.134965350736E+03  -.135878861519E+03  -.136086404395E+03  -.135468570491E+03
  -.134219984968E+03  -.132744964910E+03  -.131368680690E+03  -.130183878125E+03  -.129130563980E+03
  -.128121670529E+03  -.127098852956E+03  -.126036275459E+03  -.124929159112E+03  -.123782453559E+03
  -.122603040948E+03  -.121395644728E+03  -.120161659260E+03  -.118899720621E+03  -.117606931443E+03
  -.116280040931E+03  -.114916286380E+03  -.113513858942E+03  -.112072070695E+03  -.110591318144E+03
  -.109072924778E+03  -.107518911091E+03  -.105930702861E+03  -.104310323482E+03  -.102662146672E+03
  -.100988365397E+03  -.992905738508E+02  -.975697073333E+02  -.958260781028E+02  -.940595977038E+02
  -.922701842402E+02  -.904583181873E+02  -.886256709262E+02  -.867756870220E+02  -.849140328573E+02
  -.830487910236E+02  -.811902512453E+02  -.793499179559E+02  -.775379837972E+02  -.757584048427E+02
  -.740020668728E+02  -.722426320013E+02  -.704440078246E+02  -.685828641009E+02  -.666696195801E+02
  -.647435729585E+02  -.628466178327E+02  -.610039303521E+02
 core charge-density
   .231633428447E-03   .246748536790E-03   .262849129107E-03   .279999371737E-03   .298267600529E-03
   .317726590947E-03   .338453845595E-03   .360531900264E-03   .384048649701E-03   .409097694358E-03
   .435778709440E-03   .464197837712E-03   .494468107544E-03   .526709877823E-03   .561051311437E-03
   .597628879137E-03   .636587895739E-03   .678083090656E-03   .722279215020E-03   .769351687633E-03
   .819487282267E-03   .872884858857E-03   .929756141452E-03   .990326545762E-03   .105483605952E-02
   .112354017891E-02   .119671090464E-02   .127463780137E-02   .135762912441E-02   .144601301805E-02
   .154013878980E-02   .164037826547E-02   .174712722988E-02   .186080695880E-02   .198186584758E-02
   .211078114250E-02   .224806078123E-02   .239424534907E-02   .254991015823E-02   .271566745744E-02
   .289216878019E-02   .308010743984E-02   .328022118068E-02   .349329499441E-02   .372016411201E-02
   .396171718172E-02   .421889964426E-02   .449271731725E-02   .478424020129E-02   .509460652107E-02
   .542502701539E-02   .577678949094E-02   .615126365551E-02   .654990624697E-02   .697426647554E-02
   .742599179754E-02   .790683404006E-02   .841865589682E-02   .896343781668E-02   .954328530726E-02
   .101604366777E-01   .108172712451E-01   .115163180310E-01   .122602649761E-01   .130519687007E-01
   .138944648428E-01   .147909790048E-01   .157449383418E-01   .167599838278E-01   .178399832342E-01
   .189890448616E-01   .202115320613E-01   .215120785910E-01   .228956048473E-01   .243673350184E-01
   .259328152065E-01   .275979325673E-01   .293689355173E-01   .312524550610E-01   .332555272936E-01
   .353856171338E-01   .376506433448E-01   .400590049037E-01   .426196087797E-01   .453418991835E-01
   .482358883529E-01   .513121889391E-01   .545820480596E-01   .580573830866E-01   .617508192367E-01
   .656757290316E-01   .698462736987E-01   .742774465757E-01   .789851185924E-01   .839860858902E-01
   .892981196466E-01   .949400181661E-01   .100931661294E+00   .107294067210E+00   .114049451656E+00
   .121221289628E+00   .128834379588E+00   .136914910216E+00   .145490529721E+00   .154590417721E+00
   .164245359702E+00   .174487824019E+00   .185352041420E+00   .196874087042E+00   .209091964805E+00
   .222045694104E+00   .235777398700E+00   .250331397637E+00   .265754298025E+00   .282095089468E+00
   .299405239890E+00   .317738792448E+00   .337152463222E+00   .357705739254E+00   .379460976514E+00
   .402483497279E+00   .426841686338E+00   .452607085396E+00   .479854484942E+00   .508662012770E+00
   .539111218277E+00   .571287151512E+00   .605278435922E+00   .641177333541E+00   .679079801349E+00
   .719085537308E+00   .761298014540E+00   .805824501885E+00   .852776069034E+00   .902267574176E+00
   .954417632024E+00   .100934855989E+01   .106718629928E+01   .112806031043E+01   .119210343681E+01
   .125945173677E+01   .133024427897E+01   .140462289839E+01   .148273190932E+01   .156471777175E+01
   .165072870728E+01   .174091426065E+01   .183542480296E+01   .193441097221E+01   .203802304732E+01
   .214641025113E+01   .225971997842E+01   .237809694482E+01   .250168225250E+01   .263061236912E+01
   .276501801625E+01   .290502296433E+01   .305074273127E+01   .320228318261E+01   .335973903169E+01
   .352319223901E+01   .369271031107E+01   .386834449977E+01   .405012790496E+01   .423807348382E+01
   .443217197266E+01   .463238972811E+01   .483866649693E+01   .505091312565E+01   .526900922365E+01
   .549280079584E+01   .572209786381E+01   .595667209747E+01   .619625448184E+01   .644053304759E+01
   .668915069671E+01   .694170315864E+01   .719773711553E+01   .745674853891E+01   .771818128375E+01
   .798142598881E+01   .824581933630E+01   .851064372540E+01   .877512741817E+01   .903844521731E+01
   .929971973694E+01   .955802332814E+01   .981238072064E+01   .100617724403E+02   .103051390599E+02
   .105413863354E+02   .107693912766E+02   .109880091896E+02   .111960817244E+02   .113924459443E+02
   .115759444245E+02   .117454363698E+02   .118998097220E+02   .120379942114E+02   .121589752804E+02
   .122618087844E+02   .123456363510E+02   .124097012454E+02   .124533645681E+02   .124761215742E+02
   .124776178790E+02   .124576652815E+02   .124162569133E+02   .123535813903E+02   .122700356249E+02
   .121662359379E+02   .120430270944E+02   .119014888845E+02   .117429398673E+02   .115689379109E+02
   .113812771782E+02   .111819812388E+02   .109732920331E+02   .107576544637E+02   .105376964606E+02
   .103162044387E+02   .100960941608E+02   .988037711158E+01   .967212259609E+01   .947441588625E+01
   .929031284842E+01   .912279159445E+01   .897470180943E+01   .884871249042E+01   .874725893934E+01
   .867248992522E+01   .862621601558E+01   .860986015868E+01   .862441167718E+01   .867038490387E+01
   .874778373829E+01   .885607341534E+01   .899416073799E+01   .916038392158E+01   .935251300753E+01
   .956776152771E+01   .980280976740E+01   .100538396417E+02   .103165809347E+02   .105863684442E+02
   .108582094204E+02   .111268604868E+02   .113869130066E+02   .116328855685E+02   .118593219945E+02
   .120608929982E+02   .122324994153E+02   .123693747744E+02   .124671848714E+02   .125221219929E+02
   .125309914370E+02   .124912880849E+02   .124012608856E+02   .122599633386E+02   .120672882731E+02
   .118239855462E+02   .115316616136E+02   .111927603221E+02   .108105247030E+02   .103889400095E+02
   .993265873351E+01   .944690884376E+01   .893738701301E+01   .841013912435E+01   .787143086145E+01
   .732761167806E+01   .678497588982E+01   .624962499952E+01   .572733561065E+01   .522343735271E+01
   .474270509005E+01   .428926916410E+01   .386654658776E+01   .347719475540E+01   .312308733877E+01
   .280530912037E+01   .252416474359E+01   .227919661003E+01   .206921337654E+01   .189234018454E+01
   .174610599364E+01   .162757193328E+01   .153348052781E+01   .146039391383E+01   .140480599130E+01
   .136323533578E+01   .133230917142E+01   .130884148241E+01   .128990326745E+01   .127288187494E+01
   .125552694580E+01   .123598139180E+01   .121279676423E+01   .118493327227E+01   .115174552707E+01
   .111295574991E+01   .106861664893E+01   .101906644599E+01   .964878637034E+00   .906809024445E+00
   .845742393858E+00   .782640952485E+00   .718496315506E+00   .654286262269E+00   .590937741331E+00
   .529296942826E+00   .470106191589E+00   .413987809979E+00   .361434877286E+00   .312808344761E+00
   .268339856336E+00   .228139450775E+00   .192207193553E+00   .160447698930E+00   .132686464651E+00
   .108686967783E+00   .881675597439E-01   .708173443925E-01   .563104025428E-01   .443179220331E-01
   .345180076137E-01   .266032037492E-01   .202860583797E-01   .153032482812E-01   .114186366211E-01
   .842515796358E-02   .614515368459E-02   .442910539416E-02
 pspotential
  -.151067028533E+03  -.151068492008E+03  -.151069909390E+03  -.151071282133E+03  -.151072611642E+03
  -.151073899280E+03  -.151075146363E+03  -.151076354170E+03  -.151077523937E+03  -.151078656862E+03
  -.151079754105E+03  -.151080816790E+03  -.151081846006E+03  -.151082842805E+03  -.151083808209E+03
  -.151084743206E+03  -.151085648754E+03  -.151086525780E+03  -.151087375181E+03  -.151088197829E+03
  -.151088994564E+03  -.151089766204E+03  -.151090513537E+03  -.151091237329E+03  -.151091938322E+03
  -.151092617233E+03  -.151093274756E+03  -.151093911565E+03  -.151094528313E+03  -.151095125630E+03
  -.151095704128E+03  -.151096264399E+03  -.151096807017E+03  -.151097332536E+03  -.151097841496E+03
  -.151098334416E+03  -.151098811802E+03  -.151099274142E+03  -.151099721908E+03  -.151100155559E+03
  -.151100575539E+03  -.151100982277E+03  -.151101376189E+03  -.151101757678E+03  -.151102127135E+03
  -.151102484936E+03  -.151102831448E+03  -.151103167026E+03  -.151103492010E+03  -.151103806735E+03
  -.151104111520E+03  -.151104406679E+03  -.151104692511E+03  -.151104969308E+03  -.151105237353E+03
  -.151105496919E+03  -.151105748271E+03  -.151105991665E+03  -.151106227349E+03  -.151106455562E+03
  -.151106676536E+03  -.151106890497E+03  -.151107097661E+03  -.151107298238E+03  -.151107492433E+03
  -.151107680441E+03  -.151107862453E+03  -.151108038652E+03  -.151108209217E+03  -.151108374319E+03
  -.151108534124E+03  -.151108688793E+03  -.151108838480E+03  -.151108983336E+03  -.151109123504E+03
  -.151109259123E+03  -.151109390329E+03  -.151109517251E+03  -.151109640013E+03  -.151109758737E+03
  -.151109873537E+03  -.151109984525E+03  -.151110091808E+03  -.151110195489E+03  -.151110295667E+03
  -.151110392436E+03  -.151110485887E+03  -.151110576106E+03  -.151110663177E+03  -.151110747177E+03
  -.151110828183E+03  -.151110906265E+03  -.151110981490E+03  -.151111053923E+03  -.151111123623E+03
  -.151111190647E+03  -.151111255047E+03  -.151111316872E+03  -.151111376166E+03  -.151111432972E+03
  -.151111487325E+03  -.151111539260E+03  -.151111588806E+03  -.151111635989E+03  -.151111680829E+03
  -.151111723344E+03  -.151111763548E+03  -.151111801447E+03  -.151111837047E+03  -.151111870347E+03
  -.151111901341E+03  -.151111930019E+03  -.151111956365E+03  -.151111980358E+03  -.151112001971E+03
  -.151112021173E+03  -.151112037924E+03  -.151112052181E+03  -.151112063891E+03  -.151112072995E+03
  -.151112079430E+03  -.151112083119E+03  -.151112083984E+03  -.151112081932E+03  -.151112076865E+03
  -.151112068675E+03  -.151112057243E+03  -.151112042440E+03  -.151112024125E+03  -.151112002145E+03
  -.151111976337E+03  -.151111946522E+03  -.151111912507E+03  -.151111874085E+03  -.151111831033E+03
  -.151111783111E+03  -.151111730060E+03  -.151111671604E+03  -.151111607444E+03  -.151111537263E+03
  -.151111460718E+03  -.151111377442E+03  -.151111287044E+03  -.151111189104E+03  -.151111083173E+03
  -.151110968771E+03  -.151110845383E+03  -.151110712461E+03  -.151110569419E+03  -.151110415629E+03
  -.151110250422E+03  -.151110073084E+03  -.151109882849E+03  -.151109678904E+03  -.151109460377E+03
  -.151109226341E+03  -.151108975803E+03  -.151108707706E+03  -.151108420920E+03  -.151108114242E+03
  -.151107786387E+03  -.151107435982E+03  -.151107061567E+03  -.151106661581E+03  -.151106234361E+03
  -.151105778131E+03  -.151105291001E+03  -.151104770950E+03  -.151104215827E+03  -.151103623337E+03
  -.151102991031E+03  -.151102316300E+03  -.151101596361E+03  -.151100828246E+03  -.151100008790E+03
  -.151099134620E+03  -.151098202139E+03  -.151097207511E+03  -.151096146647E+03  -.151095015187E+03
  -.151093808483E+03  -.151092521579E+03  -.151091149192E+03  -.151089685689E+03  -.151088125064E+03
  -.151086460917E+03  -.151084686422E+03  -.151082794303E+03  -.151080776803E+03  -.151078625655E+03
  -.151076332043E+03  -.151073886571E+03  -.151071279221E+03  -.151068499316E+03  -.151065535473E+03
  -.151062375558E+03  -.151059006636E+03  -.151055414921E+03  -.151051585716E+03  -.151047503356E+03
  -.151043151144E+03  -.151038511280E+03  -.151033564794E+03  -.151028291467E+03  -.151022669745E+03
  -.151016676659E+03  -.151010287726E+03  -.151003476852E+03  -.150996216228E+03  -.150988476217E+03
  -.150980225232E+03  -.150971429612E+03  -.150962053485E+03  -.150952058625E+03  -.150941404297E+03
  -.150930047094E+03  -.150917940764E+03  -.150905036026E+03  -.150891280371E+03  -.150876617856E+03
  -.150860988877E+03  -.150844329940E+03  -.150826573402E+03  -.150807647208E+03  -.150787474606E+03
  -.150765973849E+03  -.150743057869E+03  -.150718633942E+03  -.150692603324E+03  -.150664860871E+03
  -.150635294630E+03  -.150603785411E+03  -.150570206329E+03  -.150534422320E+03  -.150496289629E+03
  -.150455655269E+03  -.150412356445E+03  -.150366219948E+03  -.150317061512E+03  -.150264685141E+03
  -.150208882388E+03  -.150149431603E+03  -.150086097139E+03  -.150018628514E+03  -.149946759529E+03
  -.149870207343E+03  -.149788671503E+03  -.149701832923E+03  -.149609352817E+03  -.149510871586E+03
  -.149406007652E+03  -.149294356243E+03  -.149175488137E+03  -.149048948345E+03  -.148914254761E+03
  -.148770896763E+03  -.148618333769E+03  -.148455993760E+03  -.148283271777E+03  -.148099528376E+03
  -.147904088081E+03  -.147696237820E+03  -.147475225362E+03  -.147240257772E+03  -.146990499897E+03
  -.146725072899E+03  -.146443052856E+03  -.146143469463E+03  -.145825304851E+03  -.145487492564E+03
  -.145128916728E+03  -.144748411455E+03  -.144344760531E+03  -.143916697443E+03  -.143462905803E+03
  -.142982020242E+03  -.142472627855E+03  -.141933270266E+03  -.141362446432E+03  -.140758616276E+03
  -.140120205269E+03  -.139445610096E+03  -.138733205533E+03  -.137981352708E+03  -.137188408892E+03
  -.136352739020E+03  -.135472729131E+03  -.134546801936E+03  -.133573434754E+03  -.132551180067E+03
  -.131478688959E+03  -.130354737750E+03  -.129178258145E+03  -.127948371288E+03  -.126664426126E+03
  -.125326042579E+03  -.123933160101E+03  -.122486092292E+03  -.120985588418E+03  -.119432902834E+03
  -.117829873531E+03  -.116179011318E+03  -.114483601319E+03  -.112747818669E+03  -.110976859933E+03
  -.109177090497E+03  -.107355252237E+03  -.105520615716E+03  -.103684876288E+03  -.101860468967E+03
  -.100061150164E+03  -.983010699785E+02  -.965926772774E+02  -.949428436710E+02  -.933470824611E+02
  -.917834382330E+02  -.902104635751E+02  -.885753264550E+02  -.868345773262E+02  -.849824776763E+02
  -.830806308506E+02  -.812822964143E+02  -.797423158294E+02  -.781285249552E+02  -.756444723357E+02
  -.737981100303E+02  -.720384465915E+02  -.702838381244E+02  -.684994747011E+02  -.666578113356E+02
  -.647637885985E+02  -.628516832571E+02  -.610039791617E+02
 core charge-density (pseudized)
   .398288804154E-08   .424612666526E-08   .452676336094E-08   .482594800886E-08   .514490648767E-08
   .548494569727E-08   .584745891368E-08   .623393149790E-08   .664594698199E-08   .708519355743E-08
   .755347099233E-08   .805269800578E-08   .858492012961E-08   .915231808975E-08   .975721674153E-08
   .104020945955E-07   .110895939730E-07   .118225318326E-07   .126039113125E-07   .134369340355E-07
   .143250132271E-07   .152717877013E-07   .162811367699E-07   .173571961378E-07   .185043748483E-07
   .197273733492E-07   .210312027518E-07   .224212053641E-07   .239030765797E-07   .254828882145E-07
   .271671133852E-07   .289626530321E-07   .308768641954E-07   .329175901594E-07   .350931925897E-07
   .374125857946E-07   .398852732500E-07   .425213865393E-07   .453317268664E-07   .483278093122E-07
   .515219100170E-07   .549271164802E-07   .585573811852E-07   .624275787681E-07   .665535669649E-07
   .709522515871E-07   .756416557913E-07   .806409939270E-07   .859707502657E-07   .916527629325E-07
   .977103133860E-07   .104168221811E-06   .111052948817E-06   .118392703857E-06   .126217560814E-06
   .134559581222E-06   .143452945639E-06   .152934093697E-06   .163041873404E-06   .173817700328E-06
   .185305727285E-06   .197553025254E-06   .210609776244E-06   .224529478909E-06   .239369167751E-06
   .255189646814E-06   .272055738821E-06   .290036550774E-06   .309205757118E-06   .329641901605E-06
   .351428719123E-06   .374655478785E-06   .399417349701E-06   .425815790919E-06   .453958967140E-06
   .483962191906E-06   .515948400086E-06   .550048651582E-06   .586402668325E-06   .625159406772E-06
   .666477668226E-06   .710526749503E-06   .757487136602E-06   .807551244212E-06   .860924204105E-06
   .917824705627E-06   .978485891738E-06   .104315631428E-05   .111210095236E-05   .118560229808E-05
   .126396151397E-05   .134749966692E-05   .143655904377E-05   .153150455364E-05   .163272522318E-05
   .174063579044E-05   .185567840420E-05   .197832443554E-05   .210907640920E-05   .224847006252E-05
   .239707654046E-05   .255550473576E-05   .272440378365E-05   .290446572148E-05   .309642832416E-05
   .330107812691E-05   .351925364780E-05   .375184882333E-05   .399981667091E-05   .426417319353E-05
   .454600154233E-05   .484645645441E-05   .516676898376E-05   .550825154492E-05   .587230328989E-05
   .626041584045E-05   .667417939915E-05   .711528926424E-05   .758555277504E-05   .808689671630E-05
   .862137521184E-05   .919117813972E-05   .979864010358E-05   .104462499966E-04   .111366611977E-04
   .118727024409E-04   .126573894038E-04   .134939370603E-04   .143857728511E-04   .153365507233E-04
   .163501660974E-04   .174307718242E-04   .185827951947E-04   .198109560746E-04   .211202862360E-04
   .225161499668E-04   .240042660409E-04   .255907311401E-04   .272820448226E-04   .290851361409E-04
   .310073920176E-04   .330566874950E-04   .352414179827E-04   .375705336344E-04   .400535759946E-04
   .427007170652E-04   .455228009512E-04   .485313882558E-04   .517388034061E-04   .551581851029E-04
   .588035400999E-04   .626898005326E-04   .668328850300E-04   .712497638585E-04   .759585283644E-04
   .809784649966E-04   .863301342121E-04   .920354545860E-04   .981177924666E-04   .104602057543E-03
   .111514804712E-03   .118884342659E-03   .126740849592E-03   .135116496609E-03   .144045579177E-03
   .153564657286E-03   .163712704820E-03   .174531268763E-03   .186064638883E-03   .198360028578E-03
   .211467767618E-03   .225441507554E-03   .240338440632E-03   .256219533086E-03   .273149773755E-03
   .291198439015E-03   .310439375101E-03   .330951298939E-03   .352818118698E-03   .376129275346E-03
   .400980106563E-03   .427472234468E-03   .455713978704E-03   .485820796504E-03   .517915751501E-03
   .552130013113E-03   .588603388483E-03   .627484889062E-03   .668933334039E-03   .713117993003E-03
   .760219270304E-03   .810429433795E-03   .863953390750E-03   .921009513960E-03   .981830521151E-03
   .104666441110E-02   .111577545997E-02   .118944528167E-02   .126797395615E-02   .135168122990E-02
   .144090779308E-02   .153601663792E-02   .163739450344E-02   .174545341162E-02   .186063230065E-02
   .198339876083E-02   .211425087953E-02   .225371920128E-02   .240236881000E-02   .256080154018E-02
   .272965832453E-02   .290962168573E-02   .310141838029E-02   .330582220296E-02   .352365696024E-02
   .375579962211E-02   .400318366114E-02   .426680258876E-02   .454771369817E-02   .484704202434E-02
   .516598453099E-02   .550581453508E-02   .586788637913E-02   .625364036183E-02   .666460793713E-02
   .710241719187E-02   .756879861178E-02   .806559114473E-02   .859474857001E-02   .915834618098E-02
   .975858778752E-02   .103978130432E-01   .110785051005E-01   .118032985940E-01   .125749879519E-01
   .133965360280E-01   .142710830487E-01   .152019558591E-01   .161926774514E-01   .172469767518E-01
   .183687986319E-01   .195623141077E-01   .208319306756E-01   .221823027241E-01   .236183419513E-01
   .251452276978E-01   .267684170935E-01   .284936548943E-01   .303269828658E-01   .322747485456E-01
   .343436131877E-01   .365405586644E-01   .388728930628E-01   .413482546764E-01   .439746140482E-01
   .467602736721E-01   .497138649063E-01   .528443415918E-01   .561609698033E-01   .596733130866E-01
   .633912124560E-01   .673247603407E-01   .714842675723E-01   .758802224048E-01   .805232404508E-01
   .854240043020E-01   .905931914806E-01   .960413892436E-01   .101778994634E+00   .107816098042E+00
   .114162348422E+00   .120826798173E+00   .127817725616E+00   .135142432875E+00   .142807016944E+00
   .150816111679E+00   .159172598486E+00   .167877283580E+00   .176928539850E+00   .186321911668E+00
   .196049681373E+00   .206100396761E+00   .216458359644E+00   .227103076590E+00   .238008674177E+00
   .249143282747E+00   .260468394574E+00   .271938204799E+00   .283498946333E+00   .295088233386E+00
   .306634432249E+00   .318056082597E+00   .329261397843E+00   .340147878951E+00   .350602082618E+00
   .360499591679E+00   .369705242876E+00   .378073674468E+00   .385450263140E+00   .391672525802E+00
   .396572066367E+00   .399977149628E+00   .401715982530E+00   .401620776201E+00   .399532647986E+00
   .395307399509E+00   .388822171804E+00   .379982929227E+00   .368732657205E+00   .355060072072E+00
   .339008531844E+00   .320684702952E+00   .300266379483E+00   .278008670220E+00   .254247569940E+00
   .229399724941E+00   .203957004570E+00   .178474324769E+00   .153549070072E+00   .129790472292E+00
   .107777485081E+00   .880041136903E-01   .708118992228E-01   .563104025428E-01   .443179220331E-01
   .345180076137E-01   .266032037492E-01   .202860583797E-01   .153032482812E-01   .114186366211E-01
   .842515796358E-02   .614515368459E-02   .442910539416E-02
 pseudo wavefunction
   .307114408707E-08   .327412336631E-08   .349051803297E-08   .372121474216E-08   .396715875018E-08
   .422935778757E-08   .450888618819E-08   .480688929123E-08   .512458813407E-08   .546328445538E-08
   .582436602886E-08   .620931234950E-08   .661970069567E-08   .705721259184E-08   .752364069844E-08
   .802089615717E-08   .855101642163E-08   .911617360562E-08   .971868338315E-08   .103610144767E-07
   .110457987724E-07   .117758421042E-07   .125541357503E-07   .133838686896E-07   .142684406682E-07
   .152114761298E-07   .162168390659E-07   .172886488487E-07   .184312971095E-07   .196494657331E-07
   .209481460410E-07   .223326592435E-07   .238086782420E-07   .253822508738E-07   .270598246922E-07
   .288482733844E-07   .307549249365E-07   .327875916584E-07   .349546021941E-07   .372648356480E-07
   .397277579653E-07   .423534607184E-07   .451527024554E-07   .481369527830E-07   .513184393612E-07
   .547101980053E-07   .583261260986E-07   .621810395357E-07   .662907334287E-07   .706720468264E-07
   .753429317104E-07   .803225265511E-07   .856312347262E-07   .912908081207E-07   .973244362536E-07
   .103756841294E-06   .110614379357E-06   .117925148496E-06   .125719103833E-06   .134028180291E-06
   .142886423450E-06   .152330129043E-06   .162397991671E-06   .173131263352E-06   .184573922551E-06
   .196772854366E-06   .209778042646E-06   .223642774787E-06   .238423860073E-06   .254181862447E-06
   .270981348661E-06   .288891152835E-06   .307984658494E-06   .328340099250E-06   .350040879352E-06
   .373175915429E-06   .397840000811E-06   .424134193937E-06   .452166232424E-06   .482050974514E-06
   .513910869686E-06   .547876460380E-06   .584086916878E-06   .622690607532E-06   .663845706686E-06
   .707720842772E-06   .754495789243E-06   .804362201167E-06   .857524400508E-06   .914200213303E-06
   .974621862170E-06   .103903691781E-05   .110770931337E-05   .118092042591E-05   .125897022924E-05
   .134217852305E-05   .143088624322E-05   .152545685876E-05   .162627786103E-05   .173376235144E-05
   .184835073401E-05   .197051251988E-05   .210074825103E-05   .223959155110E-05   .238761131184E-05
   .254541402398E-05   .271364626219E-05   .289299733429E-05   .308420210543E-05   .328804400908E-05
   .350535825688E-05   .373703526070E-05   .398402428080E-05   .424733731516E-05   .452805324577E-05
   .482732225896E-05   .514637055792E-05   .548650538652E-05   .584912038530E-05   .623570130124E-05
   .664783207500E-05   .708720133036E-05   .755560929252E-05   .805497516359E-05   .858734498549E-05
   .915490002242E-05   .975996569728E-05   .104050211186E-04   .110927092369E-04   .118258476727E-04
   .126074402589E-04   .134406893474E-04   .143290089273E-04   .152760386113E-04   .162856585451E-04
   .173620053028E-04   .185094888318E-04   .197328105180E-04   .210369824438E-04   .224273479188E-04
   .239096033673E-04   .254898216608E-04   .271744769926E-04   .289704713958E-04   .308851630122E-04
   .329263962292E-04   .351025338075E-04   .374224911298E-04   .398957727130E-04   .425325111307E-04
   .453435085066E-04   .483402807488E-04   .515351047035E-04   .549410684239E-04   .585721247575E-04
   .624431484713E-04   .665699971485E-04   .709695761057E-04   .756599075939E-04   .806602045683E-04
   .859909493261E-04   .916739773334E-04   .977325665838E-04   .104191532852E-03   .111077331233E-03
   .118418164373E-03   .126244097851E-03   .134587183152E-03   .143481588761E-03   .152963739897E-03
   .163072467450E-03   .173849166742E-03   .185337966743E-03   .197585910430E-03   .210643147038E-03
   .224563136949E-03   .239402870090E-03   .255223098682E-03   .272088585318E-03   .290068367349E-03
   .309236038655E-03   .329670049933E-03   .351454028717E-03   .374677120414E-03   .399434351726E-03
   .425827017924E-03   .453963095516E-03   .483957681968E-03   .515933464232E-03   .550021217960E-03
   .586360339373E-03   .625099411917E-03   .666396809950E-03   .710421341843E-03   .757352935040E-03
   .807383365776E-03   .860717036318E-03   .917571802778E-03   .978179856720E-03   .104278866401E-02
   .111166196452E-02   .118508083663E-02   .126334483045E-02   .134677317436E-02   .143570605923E-02
   .153050600532E-02   .163155931700E-02   .173927763074E-02   .185409956217E-02   .197649245820E-02
   .210695426088E-02   .224601548951E-02   .239424134838E-02   .255223396770E-02   .272063478549E-02
   .290012707906E-02   .309143865465E-02   .329534470463E-02   .351267084181E-02   .374429632109E-02
   .399115745894E-02   .425425126182E-02   .453463927495E-02   .483345166355E-02   .515189153859E-02
   .549123954027E-02   .585285869205E-02   .623819953891E-02   .664880558381E-02   .708631903620E-02
   .755248688705E-02   .804916732478E-02   .857833650632E-02   .914209569777E-02   .974267879831E-02
   .103824602612E-01   .110639634242E-01   .117898692620E-01   .125630255705E-01   .133864565923E-01
   .142633730914E-01   .151971828799E-01   .161915018012E-01   .172501651644E-01   .183772396280E-01
   .195770355186E-01   .208541195685E-01   .222133280496E-01   .236597802693E-01   .251988923885E-01
   .268363915080E-01   .285783299576E-01   .304310997096E-01   .324014468168E-01   .344964857615E-01
   .367237135752E-01   .390910235664E-01   .416067184642E-01   .442795227533E-01   .471185939399E-01
   .501335324464E-01   .533343897864E-01   .567316746206E-01   .603363562361E-01   .641598649259E-01
   .682140886764E-01   .725113654899E-01   .770644705825E-01   .818865976028E-01   .869913329119E-01
   .923926218538E-01   .981047258208E-01   .104142168790E+00   .110519671866E+00   .117252074222E+00
   .124354238671E+00   .131840939953E+00   .139726733653E+00   .148025803529E+00   .156751784840E+00
   .165917561179E+00   .175535032155E+00   .185614849201E+00   .196166116732E+00   .207196055891E+00
   .218709628192E+00   .230709116539E+00   .243193661415E+00   .256158750420E+00   .269595659994E+00
   .283490848951E+00   .297825304546E+00   .312573843170E+00   .327704369517E+00   .343177100179E+00
   .358943760289E+00   .374946764906E+00   .391118400592E+00   .407380026931E+00   .423641322766E+00
   .439799607567E+00   .455739274662E+00   .471331380007E+00   .486433437515E+00   .500889479649E+00
   .514530449650E+00   .527174998928E+00   .538630769389E+00   .548696244838E+00   .557163257300E+00
   .563820231762E+00   .568456245122E+00   .570865960138E+00   .570855471073E+00   .568249062117E+00
   .562896830400E+00   .554683060109E+00   .543535150942E+00   .529432801592E+00   .512417026949E+00
   .492598447912E+00   .470164139286E+00   .445382162090E+00   .418602754120E+00   .390255025181E+00
   .360837926212E+00   .330904267575E+00   .301036691801E+00   .271814807979E+00   .243773220748E+00
   .217350988270E+00   .192834163336E+00   .170302399594E+00
 ae wavefunction
  -.134728433946E-05  -.142826529140E-05  -.151375409979E-05  -.160402345062E-05  -.169936165745E-05
  -.180007363090E-05  -.190648190323E-05  -.201892771663E-05  -.213777217788E-05  -.226339748051E-05
  -.239620820637E-05  -.253663270186E-05  -.268512454355E-05  -.284216408909E-05  -.300826012911E-05
  -.318395163720E-05  -.336980963309E-05  -.356643915388E-05  -.377448135353E-05  -.399461574242E-05
  -.422756254470E-05  -.447408522160E-05  -.473499314549E-05  -.501114444597E-05  -.530344902639E-05
  -.561287178382E-05  -.594043601608E-05  -.628722705456E-05  -.665439612447E-05  -.704316444469E-05
  -.745482759186E-05  -.789076013921E-05  -.835242058750E-05  -.884135661190E-05  -.935921064020E-05
  -.990772578603E-05  -.104887521597E-04  -.111042535808E-04  -.117563147182E-04  -.124471486859E-04
  -.131791051230E-04  -.139546787898E-04  -.147765187128E-04  -.156474379150E-04  -.165704237671E-04
  -.175486490023E-04  -.185854834350E-04  -.196845064303E-04  -.208495201720E-04  -.220845637806E-04
  -.233939283352E-04  -.247821728578E-04  -.262541413259E-04  -.278149807686E-04  -.294701605252E-04
  -.312254927416E-04  -.330871541809E-04  -.350617094173E-04  -.371561355398E-04  -.393778484178E-04
  -.417347306550E-04  -.442351613420E-04  -.468880476969E-04  -.497028587476E-04  -.526896611507E-04
  -.558591573190E-04  -.592227259673E-04  -.627924652603E-04  -.665812387048E-04  -.706027239865E-04
  -.748714648946E-04  -.794029265749E-04  -.842135542965E-04  -.893208359459E-04  -.947433685078E-04
  -.100500928761E-03  -.106614548459E-03  -.113106594276E-03  -.120000852823E-03  -.127322621031E-03
  -.135098802260E-03  -.143358008459E-03  -.152130668786E-03  -.161449145044E-03  -.171347854403E-03
  -.181863399814E-03  -.193034708605E-03  -.204903179761E-03  -.217512840418E-03  -.230910512104E-03
  -.245145987404E-03  -.260272217517E-03  -.276345511579E-03  -.293425748264E-03  -.311576600500E-03
  -.330865774100E-03  -.351365261045E-03  -.373151608379E-03  -.396306203610E-03  -.420915577560E-03
  -.447071725722E-03  -.474872449200E-03  -.504421716353E-03  -.535830046357E-03  -.569214915939E-03
  -.604701190622E-03  -.642421581841E-03  -.682517131462E-03  -.725137725153E-03  -.770442636340E-03
  -.818601102312E-03  -.869792934381E-03  -.924209163863E-03  -.982052725874E-03  -.104353918300E-02
  -.110889749089E-02  -.117837080815E-02  -.125221735266E-02  -.133071130688E-02  -.141414377467E-02
  -.150282379212E-02  -.159707939521E-02  -.169725874713E-02  -.180373132807E-02  -.191688919066E-02
  -.203714828403E-02  -.216494984978E-02  -.230076189320E-02  -.244508073302E-02  -.259843263326E-02
  -.276137552068E-02  -.293450079153E-02  -.311843521110E-02  -.331384290997E-02  -.352142748061E-02
  -.374193417810E-02  -.397615222872E-02  -.422491725019E-02  -.448911378722E-02  -.476967796587E-02
  -.506760027047E-02  -.538392844614E-02  -.571977053037E-02  -.607629801637E-02  -.645474915106E-02
  -.685643236991E-02  -.728272987069E-02  -.773510132747E-02  -.821508774613E-02  -.872431546138E-02
  -.926450027533E-02  -.983745173621E-02  -.104450775553E-01  -.110893881594E-01  -.117725013734E-01
  -.124966472298E-01  -.132641728957E-01  -.140775477110E-01  -.149393683254E-01  -.158523639249E-01
  -.168194015304E-01  -.178434913542E-01  -.189277921938E-01  -.200756168416E-01  -.212904374846E-01
  -.225758910670E-01  -.239357845822E-01  -.253741002586E-01  -.268950005996E-01  -.285028332311E-01
  -.302021355091E-01  -.319976388297E-01  -.338942725826E-01  -.358971676797E-01  -.380116595873E-01
  -.402432907793E-01  -.425978125260E-01  -.450811859226E-01  -.476995820543E-01  -.504593811874E-01
  -.533671708642E-01  -.564297427753E-01  -.596540882686E-01  -.630473923468E-01  -.666170259969E-01
  -.703705366819E-01  -.743156368175E-01  -.784601900451E-01  -.828121951041E-01  -.873797670944E-01
  -.921711159132E-01  -.971945216392E-01  -.102458306633E+00  -.107970804109E+00  -.113740322936E+00
  -.119775108415E+00  -.126083298774E+00  -.132672877139E+00  -.139551618708E+00  -.146727032903E+00
  -.154206300235E+00  -.161996203670E+00  -.170103054266E+00  -.178532610893E+00  -.187289993857E+00
  -.196379592288E+00  -.205804965169E+00  -.215568735959E+00  -.225672480761E+00  -.236116610081E+00
  -.246900244273E+00  -.258021082820E+00  -.269475267705E+00  -.281257241197E+00  -.293359598485E+00
  -.305772935709E+00  -.318485694050E+00  -.331484000720E+00  -.344751507804E+00  -.358269230142E+00
  -.372015383589E+00  -.385965225211E+00  -.400090897164E+00  -.414361276143E+00  -.428741830332E+00
  -.443194485722E+00  -.457677503329E+00  -.472145368306E+00  -.486548691121E+00  -.500834120163E+00
  -.514944264416E+00  -.528817624942E+00  -.542388535015E+00  -.555587111272E+00  -.568339221793E+00
  -.580566481033E+00  -.592186284821E+00  -.603111900167E+00  -.613252623614E+00  -.622514017726E+00
  -.630798228660E+00  -.638004380606E+00  -.644029037822E+00  -.648766724370E+00  -.652110494395E+00
  -.653952550726E+00  -.654184912494E+00  -.652700133891E+00  -.649392074908E+00  -.644156723535E+00
  -.636893066669E+00  -.627504005977E+00  -.615897314261E+00  -.601986627133E+00  -.585692464963E+00
  -.566943279163E+00  -.545676516853E+00  -.521839696577E+00  -.495391487446E+00  -.466302782100E+00
  -.434557753077E+00  -.400154880184E+00  -.363107934749E+00  -.323446904732E+00  -.281218842771E+00
  -.236488617524E+00  -.189339547514E+00  -.139873896224E+00  -.882132081096E-01  -.344984675345E-01
   .211099333793E-01   .784324269309E-01   .137270706475E+00   .197408370915E+00   .258611787525E+00
   .320631204485E+00   .383202183802E+00   .446047480399E+00   .508879538369E+00   .571403731773E+00
   .633322185598E+00   .694337314121E+00   .754153291887E+00   .812473533870E+00   .868994345192E+00
   .923399026524E+00   .975358984180E+00   .102454392759E+01   .107063525187E+01   .111333543772E+01
   .115237211274E+01   .118749944555E+01   .121849924021E+01   .124518261199E+01   .126739224697E+01
   .128500492305E+01   .129793389456E+01   .130613079740E+01   .130958685551E+01   .130833330287E+01
   .130244103851E+01   .129201958913E+01   .127721547771E+01   .125821009702E+01   .123521717800E+01
   .120847992957E+01   .117826791377E+01   .114487370032E+01   .110860915849E+01   .106980171153E+01
   .102879074838E+01   .985923702665E+00   .941551987225E+00   .896026824599E+00   .849695042684E+00
   .802894925264E+00   .755952257508E+00   .709176730025E+00   .662858902717E+00   .617267868333E+00
   .572649750979E+00   .529227072697E+00   .487198919761E+00   .446741664001E+00   .408009711709E+00
   .371135396238E+00   .336226999456E+00   .303364623792E+00   .272595594907E+00   .243932902640E+00
   .217359097722E+00   .192834038609E+00   .170302399594E+00
 pseudo wavefunction
  -.190242258445E-08  -.202815825617E-08  -.216220409998E-08  -.230510935511E-08  -.245745956127E-08
  -.261987895795E-08  -.279303304207E-08  -.297763129488E-08  -.317443008892E-08  -.338423578722E-08
  -.360790804725E-08  -.384636334334E-08  -.410057872176E-08  -.437159580415E-08  -.466052505540E-08
  -.496855033368E-08  -.529693374119E-08  -.564702079548E-08  -.602024594260E-08  -.641813843454E-08
  -.684232859524E-08  -.729455450065E-08  -.777666910030E-08  -.829064780961E-08  -.883859660392E-08
  -.942276064754E-08  -.100455334930E-07  -.107094668886E-07  -.114172812335E-07  -.121718767248E-07
  -.129763452405E-07  -.138339830082E-07  -.147483041110E-07  -.157230548861E-07  -.167622292752E-07
  -.178700851892E-07  -.190511619542E-07  -.203102989116E-07  -.216526552459E-07  -.230837311249E-07
  -.246093902353E-07  -.262358838089E-07  -.279698762363E-07  -.298184723734E-07  -.317892466532E-07
  -.338902741207E-07  -.361301635199E-07  -.385180925672E-07  -.410638455558E-07  -.437778534464E-07
  -.466712366062E-07  -.497558503740E-07  -.530443336360E-07  -.565501606121E-07  -.602876960651E-07
  -.642722541591E-07  -.685201612070E-07  -.730488225664E-07  -.778767939556E-07  -.830238574840E-07
  -.885111027067E-07  -.943610130369E-07  -.100597557869E-06  -.107246290790E-06  -.114334454284E-06
  -.121891091353E-06  -.129947164518E-06  -.138535682684E-06  -.147691836394E-06  -.157453142009E-06
  -.167859595437E-06  -.178953836004E-06  -.190781321167E-06  -.203390512769E-06  -.216833075605E-06
  -.231164089114E-06  -.246442273054E-06  -.262730228108E-06  -.280094692373E-06  -.298606814814E-06
  -.318342446788E-06  -.339382452832E-06  -.361813041994E-06  -.385726121064E-06  -.411219671146E-06
  -.438398149123E-06  -.467372915651E-06  -.498262691440E-06  -.531194043696E-06  -.566301904708E-06
  -.603730124709E-06  -.643632061276E-06  -.686171207688E-06  -.731521862805E-06  -.779869845229E-06
  -.831413254653E-06  -.886363283540E-06  -.944945082434E-06  -.100739868247E-05  -.107397997884E-05
  -.114496177927E-05  -.122063492178E-05  -.130130946634E-05  -.138731596520E-05  -.147900681731E-05
  -.157675771212E-05  -.168096916889E-05  -.179206817768E-05  -.191050994880E-05  -.203677977788E-05
  -.217139503420E-05  -.231490728042E-05  -.246790453240E-05  -.263101366833E-05  -.280490299713E-05
  -.299028499653E-05  -.318791923208E-05  -.339861546914E-05  -.362323699046E-05  -.386270413297E-05
  -.411799805837E-05  -.439016477280E-05  -.468031941221E-05  -.498965081084E-05  -.531942637163E-05
  -.567099725842E-05  -.604580393128E-05  -.644538204754E-05  -.687136875277E-05  -.732550938744E-05
  -.780966463667E-05  -.832581815238E-05  -.887608467909E-05  -.946271871650E-05  -.100881237545E-04
  -.107548621180E-04  -.114656654628E-04  -.122234459639E-04  -.130313082437E-04  -.138925620878E-04
  -.148107360008E-04  -.157895916575E-04  -.168331393087E-04  -.179456542040E-04  -.191316941004E-04
  -.203961179258E-04  -.217441056758E-04  -.231811796245E-04  -.247132269352E-04  -.263465237647E-04
  -.280877609583E-04  -.299440714420E-04  -.319230594221E-04  -.340328315127E-04  -.362820299171E-04
  -.386798678000E-04  -.412361669928E-04  -.439613981876E-04  -.468667237822E-04  -.499640435525E-04
  -.532660433362E-04  -.567862469283E-04  -.605390713980E-04  -.645398860524E-04  -.688050752882E-04
  -.733521055844E-04  -.781995969108E-04  -.833673988403E-04  -.888766716751E-04  -.947499729153E-04
  -.101011349420E-03  -.107686435637E-03  -.114802558291E-03  -.122388847965E-03  -.130476358018E-03
  -.139098191315E-03  -.148289635295E-03  -.158088305906E-03  -.168534300992E-03  -.179670363752E-03
  -.191542056920E-03  -.204197948371E-03  -.217689808886E-03  -.232072822880E-03  -.247405812920E-03
  -.263751478937E-03  -.281176653072E-03  -.299752571179E-03  -.319555162050E-03  -.340665355505E-03
  -.363169410566E-03  -.387159264989E-03  -.412732907544E-03  -.439994774476E-03  -.469056171700E-03
  -.500035724356E-03  -.533059855482E-03  -.568263295612E-03  -.605789625278E-03  -.645791852472E-03
  -.688433027249E-03  -.733886895808E-03  -.782338596474E-03  -.833985400201E-03  -.889037498316E-03
  -.947718840397E-03  -.101026802535E-02  -.107693924889E-02  -.114800331079E-02  -.122374868558E-02
  -.130448266024E-02  -.139053254306E-02  -.148224694762E-02  -.157999715631E-02  -.168417856794E-02
  -.179521223407E-02  -.191354648905E-02  -.203965867901E-02  -.217405699486E-02  -.231728241512E-02
  -.246991076404E-02  -.263255489101E-02  -.280586697721E-02  -.299054097564E-02  -.318731519082E-02
  -.339697500438E-02  -.362035575294E-02  -.385834576458E-02  -.411188956003E-02  -.438199122474E-02
  -.466971795756E-02  -.497620380154E-02  -.530265356175E-02  -.565034691465E-02  -.602064271243E-02
  -.641498348513E-02  -.683490014191E-02  -.728201687155E-02  -.775805624040E-02  -.826484448412E-02
  -.880431698696E-02  -.937852393934E-02  -.998963616144E-02  -.106399510760E-01  -.113318988097E-01
  -.120680483953E-01  -.128511140441E-01  -.136839614455E-01  -.145696140486E-01  -.155112592653E-01
  -.165122545278E-01  -.175761331179E-01  -.187066096739E-01  -.199075852617E-01  -.211831518807E-01
  -.225375962530E-01  -.239754027211E-01  -.255012550518E-01  -.271200369156E-01  -.288368307752E-01
  -.306569148803E-01  -.325857580214E-01  -.346290116521E-01  -.367924989315E-01  -.390822001846E-01
  -.415042342106E-01  -.440648348019E-01  -.467703217540E-01  -.496270655658E-01  -.526414449345E-01
  -.558197960508E-01  -.591683525914E-01  -.626931751922E-01  -.664000690650E-01  -.702944882906E-01
  -.743814251937E-01  -.786652830689E-01  -.831497303938E-01  -.878375345372E-01  -.927303728444E-01
  -.978286188804E-01  -.103131101517E+00  -.108634834502E+00  -.114334714120E+00  -.120223182611E+00
  -.126289855109E+00  -.132521108054E+00  -.138899627382E+00  -.145403915191E+00  -.152007754263E+00
  -.158679630607E+00  -.165382115305E+00  -.172071208277E+00  -.178695648332E+00  -.185196195971E+00
  -.191504897977E+00  -.197544345927E+00  -.203226944426E+00  -.208454209131E+00  -.213116119636E+00
  -.217090557909E+00  -.220242869380E+00  -.222425590784E+00  -.223478396492E+00  -.223228323139E+00
  -.221490340573E+00  -.218068345285E+00  -.212756659902E+00  -.205342128478E+00  -.195606901312E+00
  -.183332003696E+00  -.168301779130E+00  -.150309287360E+00  -.129162719284E+00  -.104692862154E+00
  -.767616071311E-01  -.452714348659E-01  -.101757408377E-01   .285102310373E-01   .706981918187E-01
   .116215827361E+00   .164796666139E+00   .216071591879E+00   .269562967037E+00   .324682492296E+00
   .380734056239E+00   .436922900761E+00   .492372406548E+00   .546149646444E+00   .597300513867E+00
   .644894656862E+00   .688079586934E+00   .726154380507E+00
 ae wavefunction
   .144586662625E-05   .153277309145E-05   .162451725958E-05   .172139176964E-05   .182370603165E-05
   .193178726718E-05   .204598160882E-05   .216665526817E-05   .229419577490E-05   .242901328846E-05
   .257154199479E-05   .272224158329E-05   .288159881967E-05   .305012921036E-05   .322837877530E-05
   .341692592591E-05   .361638346469E-05   .382740070060E-05   .405066570224E-05   .428690770127E-05
   .453689962223E-05   .480146079053E-05   .508145980214E-05   .537781757796E-05   .569151060105E-05
   .602357437223E-05   .637510706640E-05   .674727343122E-05   .714130892974E-05   .755852414038E-05
   .800030944021E-05   .846813998333E-05   .896358099256E-05   .948829339025E-05   .100440397847E-04
   .106326908376E-04   .112562320364E-04   .119167708983E-04   .126165446328E-04   .133579282932E-04
   .141434434475E-04   .149757674042E-04   .158577430261E-04   .167923891724E-04   .177829118076E-04
   .188327158222E-04   .199454176088E-04   .211248584445E-04   .223751187289E-04   .237005331359E-04
   .251057067345E-04   .265955321428E-04   .281752077853E-04   .298502573132E-04   .316265502725E-04
   .335103240996E-04   .355082075285E-04   .376272454814E-04   .398749255800E-04   .422592063332E-04
   .447885471367E-04   .474719402021E-04   .503189445133E-04   .533397219726E-04   .565450758417E-04
   .599464916579E-04   .635561807477E-04   .673871265311E-04   .714531337722E-04   .757688809896E-04
   .803499761802E-04   .852130161153E-04   .903756494073E-04   .958566435766E-04   .101675956397E-03
   .107854811764E-03   .114415780378E-03   .121382865535E-03   .128781594373E-03   .136639114860E-03
   .144984298935E-03   .153847852151E-03   .163262430235E-03   .173262762973E-03   .183885785913E-03
   .195170780319E-03   .207159521909E-03   .219896438912E-03   .233428780009E-03   .247806792742E-03
   .263083913101E-03   .279316966810E-03   .296566383225E-03   .314896422423E-03   .334375416363E-03
   .355076024965E-03   .377075507935E-03   .400456013331E-03   .425304883841E-03   .451714981796E-03
   .479785034032E-03   .509619997783E-03   .541331448773E-03   .575037992846E-03   .610865702456E-03
   .648948579456E-03   .689429045664E-03   .732458462824E-03   .778197683526E-03   .826817634968E-03
   .878499937195E-03   .933437557898E-03   .991835505646E-03   .105391156371E-02   .111989706663E-02
   .119003772190E-02   .126459447897E-02   .134384444830E-02   .142808187285E-02   .151761915485E-02
   .161278794061E-02   .171394026620E-02   .182144976727E-02   .193571295580E-02   .205715056736E-02
   .218620898200E-02   .232336172227E-02   .246911103199E-02   .262398953934E-02   .278856200795E-02
   .296342717996E-02   .314921971476E-02   .334661222742E-02   .355631743081E-02   .377909038541E-02
   .401573086082E-02   .426708581302E-02   .453405198141E-02   .481757860952E-02   .511867029329E-02
   .543838996070E-02   .577786198617E-02   .613827544351E-02   .652088750003E-02   .692702695524E-02
   .735809792619E-02   .781558368184E-02   .830105062790E-02   .881615244323E-02   .936263436817E-02
   .994233764446E-02   .105572041055E-01   .112092809146E-01   .119007254484E-01   .126338103204E-01
   .134109285391E-01   .142345987931E-01   .151074708540E-01   .160323310870E-01   .170121080540E-01
   .180498781969E-01   .191488715795E-01   .203124776711E-01   .215442511448E-01   .228479176653E-01
   .242273796357E-01   .256867218668E-01   .272302171329E-01   .288623315678E-01   .305877298548E-01
   .324112801560E-01   .343380587215E-01   .363733541139E-01   .385226709741E-01   .407917332523E-01
   .431864868145E-01   .457131013338E-01   .483779713616E-01   .511877164683E-01   .541491803347E-01
   .572694286634E-01   .605557457709E-01   .640156297123E-01   .676567857775E-01   .714871181896E-01
   .755147198235E-01   .797478597538E-01   .841949684277E-01   .888646202513E-01   .937655133631E-01
   .989064463630E-01   .104296291751E+00   .109943965827E+00   .115858394785E+00   .122048476744E+00
   .128523039440E+00   .135290793304E+00   .142360279649E+00   .149739813704E+00   .157437422204E+00
   .165460775302E+00   .173817112524E+00   .182513162556E+00   .191555056633E+00   .200948235354E+00
   .210697348747E+00   .220806149478E+00   .231277379126E+00   .242112647477E+00   .253312304895E+00
   .264875307840E+00   .276799077732E+00   .289079353391E+00   .301710037425E+00   .314683037024E+00
   .327988099742E+00   .341612644981E+00   .355541592083E+00   .369757186045E+00   .384238822147E+00
   .398962870911E+00   .413902505100E+00   .429027530609E+00   .444304223292E+00   .459695173824E+00
   .475159142592E+00   .490650926290E+00   .506121237310E+00   .521516596139E+00   .536779236101E+00
   .551847019050E+00   .566653360699E+00   .581127165483E+00   .595192773566E+00   .608769926407E+00
   .621773761608E+00   .634114851308E+00   .645699300010E+00   .656428916661E+00   .666201471349E+00
   .674911039899E+00   .682448431951E+00   .688701692726E+00   .693556668047E+00   .696897625115E+00
   .698607926868E+00   .698570760844E+00   .696669925048E+00   .692790671913E+00   .686820610021E+00
   .678650660863E+00   .668176066843E+00   .655297445988E+00   .639921888021E+00   .621964086653E+00
   .601347501909E+00   .578005546306E+00   .551882787180E+00   .522936157109E+00   .491136162193E+00
   .456468077048E+00   .418933113144E+00   .378549545225E+00   .335353778417E+00   .289401336489E+00
   .240767749862E+00   .189549320575E+00   .135863740936E+00   .798505434608E-01   .216713621826E-01
  -.384900103713E-01  -.100427780948E+00  -.163914533871E+00  -.228701834958E+00  -.294521074373E+00
  -.361084584925E+00  -.428087115375E+00  -.495207797746E+00  -.562112794994E+00  -.628458764137E+00
  -.693896947750E+00  -.758076946644E+00  -.820648237847E+00  -.881257385060E+00  -.939541184632E+00
  -.995120448839E+00  -.104760148800E+01  -.109658742542E+01  -.114169287552E+01  -.118255427294E+01
  -.121883447160E+01  -.125022453767E+01  -.127644528446E+01  -.129724947858E+01  -.131242470064E+01
  -.132179650104E+01  -.132523141719E+01  -.132263948455E+01  -.131397601068E+01  -.129924252523E+01
  -.127848692759E+01  -.125180291265E+01  -.121932877722E+01  -.118124570767E+01  -.113777563736E+01
  -.108917874621E+01  -.103575065983E+01  -.977819385329E+00  -.915741862651E+00  -.849900419753E+00
  -.780699286360E+00  -.708560752903E+00  -.633921169126E+00  -.557226855538E+00  -.478930039458E+00
  -.399484948519E+00  -.319344225679E+00  -.238955817378E+00  -.158760456758E+00  -.791897395765E-01
  -.664690157032E-03   .764054517023E-01   .151624614761E+00   .224611877164E+00   .295004227555E+00
   .362459479424E+00   .426657211887E+00   .487294316508E+00   .544073125088E+00   .596685750853E+00
   .644803687605E+00   .688078998971E+00   .726154380507E+00
 pseudo wavefunction
   .987147868692E-05   .101924745489E-04   .105239083957E-04   .108661196445E-04   .112194587496E-04
   .115842875611E-04   .119609796956E-04   .123499209189E-04   .127515095407E-04   .131661568229E-04
   .135942874006E-04   .140363397170E-04   .144927664723E-04   .149640350874E-04   .154506281827E-04
   .159530440721E-04   .164717972734E-04   .170074190352E-04   .175604578812E-04   .181314801715E-04
   .187210706830E-04   .193298332080E-04   .199583911726E-04   .206073882752E-04   .212774891457E-04
   .219693800262E-04   .226837694734E-04   .234213890849E-04   .241829942477E-04   .249693649124E-04
   .257813063915E-04   .266196501842E-04   .274852548283E-04   .283790067787E-04   .293018213160E-04
   .302546434834E-04   .312384490544E-04   .322542455324E-04   .333030731823E-04   .343860060959E-04
   .355041532917E-04   .366586598510E-04   .378507080902E-04   .390815187716E-04   .403523523540E-04
   .416645102831E-04   .430193363244E-04   .444182179394E-04   .458625877067E-04   .473539247887E-04
   .488937564465E-04   .504836596042E-04   .521252624638E-04   .538202461722E-04   .555703465436E-04
   .573773558363E-04   .592431245888E-04   .611695635149E-04   .631586454600E-04   .652124074219E-04
   .673329526370E-04   .695224527337E-04   .717831499570E-04   .741173594643E-04   .765274716969E-04
   .790159548276E-04   .815853572886E-04   .842383103813E-04   .869775309714E-04   .898058242707E-04
   .927260867106E-04   .957413089079E-04   .988545787281E-04   .102069084447E-03   .105388118017E-03
   .108815078437E-03   .112353475236E-03   .116006932064E-03   .119779190405E-03   .123674113409E-03
   .127695689850E-03   .131848038206E-03   .136135410882E-03   .140562198565E-03   .145132934715E-03
   .149852300218E-03   .154725128169E-03   .159756408831E-03   .164951294741E-03   .170315105990E-03
   .175853335670E-03   .181571655500E-03   .187475921637E-03   .193572180672E-03   .199866675827E-03
   .206365853343E-03   .213076369090E-03   .220005095380E-03   .227159128008E-03   .234545793519E-03
   .242172656714E-03   .250047528399E-03   .258178473385E-03   .266573818751E-03   .275242162372E-03
   .284192381730E-03   .293433643006E-03   .302975410469E-03   .312827456176E-03   .322999869983E-03
   .333503069878E-03   .344347812660E-03   .355545204958E-03   .367106714613E-03   .379044182427E-03
   .391369834297E-03   .404096293744E-03   .417236594849E-03   .430804195612E-03   .444812991744E-03
   .459277330910E-03   .474212027436E-03   .489632377492E-03   .505554174776E-03   .521993726705E-03
   .538967871133E-03   .556493993618E-03   .574590045247E-03   .593274561048E-03   .612566679000E-03
   .632486159661E-03   .653053406441E-03   .674289486534E-03   .696216152536E-03   .718855864765E-03
   .742231814315E-03   .766367946861E-03   .791288987244E-03   .817020464855E-03   .843588739859E-03
   .871021030269E-03   .899345439912E-03   .928590987304E-03   .958787635483E-03   .989966322811E-03
   .102215899479E-02   .105539863692E-02   .108971930865E-02   .112515617842E-02   .116174555988E-02
   .119952494928E-02   .123853306415E-02   .127880988312E-02   .132039668725E-02   .136333610255E-02
   .140767214399E-02   .145345026099E-02   .150071738433E-02   .154952197473E-02   .159991407292E-02
   .165194535152E-02   .170566916851E-02   .176114062257E-02   .181841661027E-02   .187755588513E-02
   .193861911870E-02   .200166896371E-02   .206677011928E-02   .213398939842E-02   .220339579777E-02
   .227506056970E-02   .234905729690E-02   .242546196950E-02   .250435306484E-02   .258581162997E-02
   .266992136701E-02   .275676872146E-02   .284644297360E-02   .293903633303E-02   .303464403659E-02
   .313336444971E-02   .323529917130E-02   .334055314241E-02   .344923475884E-02   .356145598765E-02
   .367733248803E-02   .379698373651E-02   .392053315677E-02   .404810825421E-02   .417984075560E-02
   .431586675389E-02   .445632685851E-02   .460136635146E-02   .475113534925E-02   .490578897132E-02
   .506548751486E-02   .523039663669E-02   .540068754232E-02   .557653718267E-02   .575812845886E-02
   .594565043542E-02   .613929856240E-02   .633927490697E-02   .654578839486E-02   .675905506231E-02
   .697929831920E-02   .720674922382E-02   .744164677017E-02   .768423818845E-02   .793477925955E-02
   .819353464453E-02   .846077822985E-02   .873679348960E-02   .902187386570E-02   .931632316725E-02
   .962045599054E-02   .993459816087E-02   .102590871980E-01   .105942728064E-01   .109405173932E-01
   .112981966141E-01   .116676999512E-01   .120494313237E-01   .124438097349E-01   .128512699576E-01
   .132722632616E-01   .137072581853E-01   .141567413574E-01   .146212183692E-01   .151012147051E-01
   .155972767331E-01   .161099727625E-01   .166398941732E-01   .171876566221E-01   .177539013346E-01
   .183392964867E-01   .189445386870E-01   .195703545654E-01   .202175024790E-01   .208867743445E-01
   .215789976086E-01   .222950373676E-01   .230357986493E-01   .238022288722E-01   .245953204957E-01
   .254161138797E-01   .262657003700E-01   .271452256310E-01   .280558932450E-01   .289989686035E-01
   .299757831133E-01   .309877387464E-01   .320363129622E-01   .331230640333E-01   .342496368109E-01
   .354177689634E-01   .366292977321E-01   .378861672422E-01   .391904364177E-01   .405442875477E-01
   .419500355560E-01   .434101380289E-01   .449272060604E-01   .465040159762E-01   .481435220002E-01
   .498488699338E-01   .516234119153E-01   .534707223353E-01   .553946149804E-01   .573991614828E-01
   .594887111497E-01   .616679122494E-01   .639417348257E-01   .663154951091E-01   .687948815867E-01
   .713859827836E-01   .740953167976E-01   .769298626092E-01   .798970931729E-01   .830050102649E-01
   .862621810327E-01   .896777761487E-01   .932616094217E-01   .970241786607E-01   .100976707510E+00
   .105131187888E+00   .109500422569E+00   .114098067301E+00   .118938671746E+00   .124037718322E+00
   .129411657870E+00   .135077940814E+00   .141055042244E+00   .147362479055E+00   .154020816927E+00
   .161051664582E+00   .168477652296E+00   .176322391211E+00   .184610409446E+00   .193367060468E+00
   .202618398551E+00   .212391015536E+00   .222711832407E+00   .233607838526E+00   .245105770694E+00
   .257231723555E+00   .270010682294E+00   .283465968119E+00   .297618586778E+00   .312486470308E+00
   .328083602608E+00   .344419020205E+00   .361495681032E+00   .379309196212E+00   .397846423008E+00
   .417083921408E+00   .436986282532E+00   .457504344428E+00   .478573320076E+00   .500110873831E+00
   .522015196333E+00   .544163144132E+00   .566408529140E+00   .588580664190E+00   .610483294322E+00
   .631894068028E+00   .652564727663E+00   .672222221756E+00   .690570961882E+00   .707296459748E+00
   .722070582432E+00   .734558649979E+00   .744441892657E+00
 ae wavefunction
  -.542242084373E-03  -.559654185605E-03  -.577624459387E-03  -.596170736740E-03  -.615311414393E-03
  -.635065472474E-03  -.655452492742E-03  -.676492677372E-03  -.698206868288E-03  -.720616567110E-03
  -.743743955658E-03  -.767611917100E-03  -.792244057713E-03  -.817664729304E-03  -.843899052280E-03
  -.870972939405E-03  -.898913120264E-03  -.927747166442E-03  -.957503517447E-03  -.988211507331E-03
  -.101990139220E-02  -.105260437840E-02  -.108635265162E-02  -.112117940673E-02  -.115711887858E-02
  -.119420637356E-02  -.123247830218E-02  -.127197221249E-02  -.131272682442E-02  -.135478206520E-02
  -.139817910561E-02  -.144296039736E-02  -.148916971142E-02  -.153685217745E-02  -.158605432428E-02
  -.163682412146E-02  -.168921102199E-02  -.174326600609E-02  -.179904162622E-02  -.185659205323E-02
  -.191597312373E-02  -.197724238866E-02  -.204045916307E-02  -.210568457726E-02  -.217298162908E-02
  -.224241523760E-02  -.231405229802E-02  -.238796173798E-02  -.246421457518E-02  -.254288397628E-02
  -.262404531730E-02  -.270777624527E-02  -.279415674130E-02  -.288326918506E-02  -.297519842060E-02
  -.307003182361E-02  -.316785936999E-02  -.326877370592E-02  -.337287021913E-02  -.348024711171E-02
  -.359100547415E-02  -.370524936073E-02  -.382308586622E-02  -.394462520384E-02  -.406998078445E-02
  -.419926929695E-02  -.433261078980E-02  -.447012875364E-02  -.461195020495E-02  -.475820577066E-02
  -.490902977361E-02  -.506456031887E-02  -.522493938068E-02  -.539031289006E-02  -.556083082278E-02
  -.573664728777E-02  -.591792061565E-02  -.610481344733E-02  -.629749282245E-02  -.649613026749E-02
  -.670090188333E-02  -.691198843203E-02  -.712957542265E-02  -.735385319575E-02  -.758501700628E-02
  -.782326710470E-02  -.806880881572E-02  -.832185261462E-02  -.858261420045E-02  -.885131456591E-02
  -.912818006325E-02  -.941344246606E-02  -.970733902577E-02  -.100101125231E-01  -.103220113132E-01
  -.106432893641E-01  -.109742062878E-01  -.113150273630E-01  -.116660235493E-01  -.120274714911E-01
  -.123996535108E-01  -.127828575906E-01  -.131773773412E-01  -.135835119568E-01  -.140015661551E-01
  -.144318501006E-01  -.148746793107E-01  -.153303745428E-01  -.157992616600E-01  -.162816714759E-01
  -.167779395743E-01  -.172884061036E-01  -.178134155446E-01  -.183533164471E-01  -.189084611358E-01
  -.194792053820E-01  -.200659080392E-01  -.206689306391E-01  -.212886369471E-01  -.219253924731E-01
  -.225795639348E-01  -.232515186713E-01  -.239416240030E-01  -.246502465348E-01  -.253777513987E-01
  -.261245014328E-01  -.268908562915E-01  -.276771714848E-01  -.284837973408E-01  -.293110778874E-01
  -.301593496498E-01  -.310289403570E-01  -.319201675546E-01  -.328333371171E-01  -.337687416553E-01
  -.347266588136E-01  -.357073494507E-01  -.367110556990E-01  -.377379988965E-01  -.387883773852E-01
  -.398623641694E-01  -.409601044295E-01  -.420817128829E-01  -.432272709872E-01  -.443968239792E-01
  -.455903777431E-01  -.468078955021E-01  -.480492943275E-01  -.493144414584E-01  -.506031504281E-01
  -.519151769898E-01  -.532502148384E-01  -.546078911217E-01  -.559877617394E-01  -.573893064233E-01
  -.588119235989E-01  -.602549250235E-01  -.617175302018E-01  -.631988605773E-01  -.646979335020E-01
  -.662136559850E-01  -.677448182259E-01  -.692900869365E-01  -.708479984601E-01  -.724169516968E-01
  -.739952008469E-01  -.755808479867E-01  -.771718354939E-01  -.787659383429E-01  -.803607562930E-01
  -.819537059969E-01  -.835420130607E-01  -.851227040896E-01  -.866925987604E-01  -.882483019641E-01
  -.897861960697E-01  -.913024333632E-01  -.927929287239E-01  -.942533526063E-01  -.956791244008E-01
  -.970654062535E-01  -.984070974383E-01  -.996988293706E-01  -.100934961374E+00  -.102109577306E+00
  -.103216483170E+00  -.104249205842E+00  -.105200993040E+00  -.106064814704E+00  -.106833365926E+00
  -.107499071602E+00  -.108054092980E+00  -.108490336288E+00  -.108799463623E+00  -.108972906322E+00
  -.109001880984E+00  -.108877408394E+00  -.108590335528E+00  -.108131360882E+00  -.107491063328E+00
  -.106659934732E+00  -.105628416535E+00  -.104386940518E+00  -.102925973952E+00  -.101236069320E+00
  -.993079188026E-01  -.971324136609E-01  -.947007086768E-01  -.920042917393E-01  -.890350586595E-01
  -.857853932453E-01  -.822482526295E-01  -.784172577916E-01  -.742867891580E-01  -.698520871057E-01
  -.651093571218E-01  -.600558792979E-01  -.546901217533E-01  -.490118574885E-01  -.430222840709E-01
  -.367241454383E-01  -.301218549862E-01  -.232216189686E-01  -.160315590984E-01  -.856183309204E-02
  -.824751769255E-03   .716510877748E-02   .153908014668E-01   .238329104350E-01   .324694624804E-01
   .412758488254E-01   .502247580443E-01   .592861209021E-01   .684270680349E-01   .776119019703E-01
   .868020859257E-01   .959562529557E-01   .105030240060E+00   .113977152457E+00   .122747463028E+00
   .131289150820E+00   .139547880663E+00   .147467224131E+00   .154988920901E+00   .162053179326E+00
   .168599015601E+00   .174564631308E+00   .179887829376E+00   .184506468036E+00   .188358951831E+00
   .191384757855E+00   .193524994815E+00   .194722991948E+00   .194924914306E+00   .194080400637E+00
   .192143219536E+00   .189071939277E+00   .184830606026E+00   .179389424830E+00   .172725436856E+00
   .164823185894E+00   .155675366202E+00   .145283443015E+00   .133658236130E+00   .120820456173E+00
   .106801182329E+00   .916422698066E-01   .753966750223E-01   .581286867979E-01   .399140527605E-01
   .208399917767E-01   .100508548712E-02  -.194809556916E-01  -.404976553428E-01  -.619142669459E-01
  -.835904128424E-01  -.105376887958E+00  -.127116667157E+00  -.148646169600E+00  -.169796820123E+00
  -.190396855471E+00  -.210273101576E+00  -.229252155484E+00  -.247160363359E+00  -.263822649760E+00
  -.279061552137E+00  -.292698498702E+00  -.304557931623E+00  -.314472390108E+00  -.322286323685E+00
  -.327858236613E+00  -.331061993996E+00  -.331788001808E+00  -.329944503625E+00  -.325458965431E+00
  -.318279424938E+00  -.308375667976E+00  -.295740121931E+00  -.280388402176E+00  -.262359492390E+00
  -.241715571739E+00  -.218541518190E+00  -.192944122349E+00  -.165051044661E+00  -.135009544429E+00
  -.102985004260E+00  -.691592693484E-01  -.337288177141E-01   .309722599079E-02   .410991937344E-01
   .800490839701E-01   .119712867245E+00   .159852825967E+00   .200229865938E+00   .240605726698E+00
   .280745016601E+00   .320417015230E+00   .359397224918E+00   .397468714458E+00   .434423375599E+00
   .470063294906E+00   .504202511172E+00   .536669442007E+00   .567310130610E+00   .595991996141E+00
   .622606756847E+00   .647069808413E+00   .669312922196E+00   .689270083567E+00   .706862687784E+00
   .721993817983E+00   .734555361182E+00   .744441892657E+00
 pseudo wavefunction
   .162906645275E-05   .168203962996E-05   .173673536275E-05   .179320966435E-05   .185152036937E-05
   .191172719308E-05   .197389179252E-05   .203807782968E-05   .210435103668E-05   .217277928308E-05
   .224343264539E-05   .231638347882E-05   .239170649141E-05   .246947882052E-05   .254978011181E-05
   .263269260083E-05   .271830119723E-05   .280669357169E-05   .289796024575E-05   .299219468445E-05
   .308949339213E-05   .318995601116E-05   .329368542406E-05   .340078785885E-05   .351137299777E-05
   .362555408971E-05   .374344806610E-05   .386517566069E-05   .399086153322E-05   .412063439702E-05
   .425462715088E-05   .439297701513E-05   .453582567215E-05   .468331941151E-05   .483560927972E-05
   .499285123497E-05   .515520630682E-05   .532284076112E-05   .549592627026E-05   .567464008902E-05
   .585916523605E-05   .604969068131E-05   .624641153962E-05   .644952927043E-05   .665925188419E-05
   .687579415531E-05   .709937784216E-05   .733023191413E-05   .756859278615E-05   .781470456080E-05
   .806881927825E-05   .833119717444E-05   .860210694752E-05   .888182603309E-05   .917064088825E-05
   .946884728501E-05   .977675061320E-05   .100946661932E-04   .104229195987E-04   .107618469905E-04
   .111117954605E-04   .114731233871E-04   .118462008024E-04   .122314097711E-04   .126291447816E-04
   .130398131503E-04   .134638354385E-04   .139016458834E-04   .143536928422E-04   .148204392520E-04
   .153023631034E-04   .157999579303E-04   .163137333150E-04   .168442154106E-04   .173919474793E-04
   .179574904490E-04   .185414234880E-04   .191443445976E-04   .197668712251E-04   .204096408959E-04
   .210733118661E-04   .217585637973E-04   .224660984522E-04   .231966404135E-04   .239509378258E-04
   .247297631620E-04   .255339140146E-04   .263642139120E-04   .272215131627E-04   .281066897253E-04
   .290206501085E-04   .299643302992E-04   .309386967209E-04   .319447472241E-04   .329835121076E-04
   .340560551744E-04   .351634748209E-04   .363069051621E-04   .374875171931E-04   .387065199887E-04
   .399651619414E-04   .412647320408E-04   .426065611933E-04   .439920235855E-04   .454225380923E-04
   .468995697294E-04   .484246311552E-04   .499992842191E-04   .516251415623E-04   .533038682698E-04
   .550371835756E-04   .568268626247E-04   .586747382912E-04   .605827030564E-04   .625527109476E-04
   .645867795405E-04   .666869920258E-04   .688554993444E-04   .710945223911E-04   .734063542903E-04
   .757933627462E-04   .782579924692E-04   .808027676811E-04   .834302947028E-04   .861432646249E-04
   .889444560668E-04   .918367380247E-04   .948230728130E-04   .979065191010E-04   .101090235049E-03
   .104377481547E-03   .107771625558E-03   .111276143573E-03   .114894625171E-03   .118630776710E-03
   .122488425121E-03   .126471521839E-03   .130584146855E-03   .134830512906E-03   .139214969795E-03
   .143742008861E-03   .148416267586E-03   .153242534358E-03   .158225753391E-03   .163371029803E-03
   .168683634859E-03   .174169011391E-03   .179832779393E-03   .185680741795E-03   .191718890437E-03
   .197953412229E-03   .204390695518E-03   .211037336664E-03   .217900146835E-03   .224986159019E-03
   .232302635273E-03   .239857074209E-03   .247657218729E-03   .255711064013E-03   .264026865774E-03
   .272613148781E-03   .281478715675E-03   .290632656068E-03   .300084355947E-03   .309843507396E-03
   .319920118636E-03   .330324524404E-03   .341067396680E-03   .352159755769E-03   .363612981762E-03
   .375438826377E-03   .387649425203E-03   .400257310356E-03   .413275423567E-03   .426717129711E-03
   .440596230800E-03   .454926980454E-03   .469724098866E-03   .485002788284E-03   .500778749030E-03
   .517068196068E-03   .533887876152E-03   .551255085574E-03   .569187688533E-03   .587704136149E-03
   .606823486159E-03   .626565423301E-03   .646950280440E-03   .667999060444E-03   .689733458863E-03
   .712175887419E-03   .735349498374E-03   .759278209784E-03   .783986731699E-03   .809500593342E-03
   .835846171313E-03   .863050718868E-03   .891142396321E-03   .920150302622E-03   .950104508171E-03
   .981036088923E-03   .101297716185E-02   .104596092186E-02   .108002168013E-02   .111519490415E-02
   .115151725930E-02   .118902665227E-02   .122776227628E-02   .126776465825E-02   .130907570805E-02
   .135173876991E-02   .139579867613E-02   .144130180323E-02   .148829613069E-02   .153683130238E-02
   .158695869097E-02   .163873146533E-02   .169220466130E-02   .174743525579E-02   .180448224478E-02
   .186340672507E-02   .192427198029E-02   .198714357145E-02   .205208943208E-02   .211917996860E-02
   .218848816598E-02   .226008969923E-02   .233406305097E-02   .241048963567E-02   .248945393070E-02
   .257104361503E-02   .265534971570E-02   .274246676285E-02   .283249295376E-02   .292553032639E-02
   .302168494317E-02   .312106708562E-02   .322379146036E-02   .332997741731E-02   .343974918067E-02
   .355323609341E-02   .367057287596E-02   .379189989974E-02   .391736347620E-02   .404711616199E-02
   .418131708073E-02   .432013226192E-02   .446373499712E-02   .461230621376E-02   .476603486634E-02
   .492511834472E-02   .508976289869E-02   .526018407791E-02   .543660718517E-02   .561926774096E-02
   .580841195588E-02   .600429720696E-02   .620719251231E-02   .641737899748E-02   .663515034486E-02
   .686081321548E-02   .709468763020E-02   .733710729411E-02   .758841984460E-02   .784898699932E-02
   .811918457529E-02   .839940234464E-02   .869004368562E-02   .899152497932E-02   .930427469306E-02
   .962873208048E-02   .996534541513E-02   .103145696592E-01   .106768634515E-01   .110526852780E-01
   .114424886641E-01   .118467162018E-01   .122657921891E-01   .127001136271E-01   .131500392741E-01
   .136158764076E-01   .140978648917E-01   .145961580816E-01   .151108000243E-01   .156416983346E-01
   .161885920310E-01   .167510135127E-01   .173282437429E-01   .179192595727E-01   .185226719990E-01
   .191366539897E-01   .197588563422E-01   .203863098525E-01   .210153118816E-01   .216412951962E-01
   .222586767516E-01   .228606838741E-01   .234391550945E-01   .239843126982E-01   .244845039005E-01
   .249259074472E-01   .252922024021E-01   .255641959409E-01   .257194071637E-01   .257316043064E-01
   .255702933219E-01   .252001566892E-01   .245804425522E-01   .236643059844E-01   .223981064163E-01
   .207206681569E-01   .185625146157E-01   .158450914083E-01   .124799991422E-01   .836826346137E-02
   .339967797374E-02  -.254773490496E-02  -.960808938208E-02  -.179277600835E-01  -.276651830630E-01
  -.389902388289E-01  -.520831079089E-01  -.671324757838E-01  -.843329521442E-01  -.103881560976E+00
  -.125973155116E+00  -.150794614351E+00  -.178517703179E+00  -.209290496962E+00  -.243227337728E+00
  -.280397358162E+00  -.320811718891E+00  -.364414251029E+00
 ae wavefunction
   .558664769974E-04   .576604227595E-04   .595118763353E-04   .614226748339E-04   .633947136494E-04
   .654299482825E-04   .675303962198E-04   .696981388684E-04   .719353235488E-04   .742441655490E-04
   .766269502374E-04   .790860352421E-04   .816238526924E-04   .842429115290E-04   .869457998809E-04
   .897351875133E-04   .926138283477E-04   .955845630564E-04   .986503217336E-04   .101814126637E-03
   .105079095025E-03   .108448442056E-03   .111925483791E-03   .115513640269E-03   .119216438672E-03
   .123037516588E-03   .126980625360E-03   .131049633529E-03   .135248530380E-03   .139581429582E-03
   .144052572926E-03   .148666334180E-03   .153427223036E-03   .158339889168E-03   .163409126410E-03
   .168639877033E-03   .174037236145E-03   .179606456210E-03   .185352951677E-03   .191282303738E-03
   .197400265211E-03   .203712765540E-03   .210225915931E-03   .216946014612E-03   .223879552231E-03
   .231033217376E-03   .238413902244E-03   .246028708434E-03   .253884952886E-03   .261990173952E-03
   .270352137619E-03   .278978843859E-03   .287878533130E-03   .297059693019E-03   .306531065024E-03
   .316301651483E-03   .326380722645E-03   .336777823881E-03   .347502783036E-03   .358565717928E-03
   .369977043977E-03   .381747481976E-03   .393888065990E-03   .406410151395E-03   .419325423035E-03
   .432645903509E-03   .446383961569E-03   .460552320636E-03   .475164067425E-03   .490232660655E-03
   .505771939868E-03   .521796134317E-03   .538319871929E-03   .555358188335E-03   .572926535937E-03
   .591040793018E-03   .609717272872E-03   .628972732934E-03   .648824383896E-03   .669289898791E-03
   .690387422022E-03   .712135578307E-03   .734553481530E-03   .757660743450E-03   .781477482256E-03
   .806024330926E-03   .831322445359E-03   .857393512237E-03   .884259756590E-03   .911943949000E-03
   .940469412407E-03   .969860028494E-03   .100014024352E-02   .103133507363E-02   .106347010956E-02
   .109657152056E-02   .113066605768E-02   .116578105613E-02   .120194443670E-02   .123918470629E-02
   .127753095719E-02   .131701286522E-02   .135766068661E-02   .139950525335E-02   .144257796708E-02
   .148691079123E-02   .153253624140E-02   .157948737380E-02   .162779777148E-02   .167750152837E-02
   .172863323083E-02   .178122793658E-02   .183532115078E-02   .189094879904E-02   .194814719727E-02
   .200695301792E-02   .206740325259E-02   .212953517056E-02   .219338627313E-02   .225899424340E-02
   .232639689115E-02   .239563209266E-02   .246673772498E-02   .253975159431E-02   .261471135834E-02
   .269165444183E-02   .277061794537E-02   .285163854666E-02   .293475239399E-02   .301999499148E-02
   .310740107554E-02   .319700448220E-02   .328883800457E-02   .338293324024E-02   .347932042776E-02
   .357802827185E-02   .367908375674E-02   .378251194702E-02   .388833577535E-02   .399657581662E-02
   .410725004767E-02   .422037359223E-02   .433595845018E-02   .445401321072E-02   .457454274861E-02
   .469754790308E-02   .482302513854E-02   .495096618664E-02   .508135766906E-02   .521418070038E-02
   .534941047053E-02   .548701580638E-02   .562695871186E-02   .576919388626E-02   .591366822040E-02
   .606032027036E-02   .620907970842E-02   .635986675141E-02   .651259156612E-02   .666715365218E-02
   .682344120249E-02   .698133044166E-02   .714068494309E-02   .730135492542E-02   .746317652937E-02
   .762597107616E-02   .778954430905E-02   .795368561968E-02   .811816726147E-02   .828274355224E-02
   .844715006905E-02   .861110283836E-02   .877429752512E-02   .893640862485E-02   .909708866337E-02
   .925596740913E-02   .941265110391E-02   .956672171822E-02   .971773623807E-02   .986522599097E-02
   .100086960192E-01   .101476245095E-01   .102814622889E-01   .104096323976E-01   .105315297493E-01
   .106465208930E-01   .107539438874E-01   .108531083033E-01   .109432953687E-01   .110237582715E-01
   .110937226377E-01   .111523872012E-01   .111989246851E-01   .112324829116E-01   .112521861626E-01
   .112571368084E-01   .112464172290E-01   .112190920452E-01   .111742106851E-01   .111108103035E-01
   .110279190797E-01   .109245599110E-01   .107997545247E-01   .106525280277E-01   .104819139107E-01
   .102869595252E-01   .100667320461E-01   .982032493386E-02   .954686490274E-02   .924551940323E-02
   .891550461820E-02   .855609397081E-02   .816662713547E-02   .774651953806E-02   .729527232504E-02
   .681248277403E-02   .629785511089E-02   .575121168976E-02   .517250448330E-02   .456182682052E-02
   .391942529798E-02   .324571177852E-02   .254127537796E-02   .180689432685E-02   .104354757987E-02
   .252426033279E-03  -.565056798375E-03  -.140725479771E-02  -.227228009680E-02  -.315799489350E-02
  -.406200433324E-02  -.498165053082E-02  -.591400779341E-02  -.685587912037E-02  -.780379410936E-02
  -.875400848944E-02  -.970250561385E-02  -.106450003480E-01  -.115769458462E-01  -.124935436892E-01
  -.133897577359E-01  -.142603318568E-01  -.150998115189E-01  -.159025690721E-01  -.166628325505E-01
  -.173747178566E-01  -.180322642341E-01  -.186294729521E-01  -.191603490824E-01  -.196189461876E-01
  -.199994136529E-01  -.202960463294E-01  -.205033361048E-01  -.206160249617E-01  -.206291590665E-01
  -.205381433761E-01  -.203387962412E-01  -.200274034213E-01  -.196007709184E-01  -.190562759639E-01
  -.183919154746E-01  -.176063512325E-01  -.166989510005E-01  -.156698247403E-01  -.145198550566E-01
  -.132507209613E-01  -.118649140470E-01  -.103657461798E-01  -.875734790570E-02  -.704465690499E-02
  -.523339605580E-02  -.333004096101E-02  -.134177712256E-02   .723552783664E-03   .285751101348E-02
   .505113607562E-02   .729502408245E-02   .957942259119E-02   .118943411190E-01   .142296821100E-01
   .165753886595E-01   .189215848097E-01   .212586537321E-01   .235771872915E-01   .258677952990E-01
   .281208901510E-01   .303266499610E-01   .324752461768E-01   .345571714503E-01   .365634402440E-01
   .384856027836E-01   .403156449774E-01   .420458467818E-01   .436686283730E-01   .451763860008E-01
   .465613083512E-01   .478151610570E-01   .489290283313E-01   .498930047232E-01   .506958348091E-01
   .513245027615E-01   .517637764733E-01   .519957125700E-01   .519991294872E-01   .517490562723E-01
   .512161650248E-01   .503661950989E-01   .491593770234E-01   .475498566380E-01   .454851406383E-01
   .429055797691E-01   .397438766599E-01   .359246362287E-01   .313639711873E-01   .259691805549E-01
   .196385234536E-01   .122611173508E-01   .371699510273E-02  -.612264376791E-02  -.173949580874E-01
  -.302447532883E-01  -.448235486483E-01  -.612884791845E-01  -.798011228541E-01  -.100526320982E+00
  -.123630866746E+00  -.149281451675E+00  -.177640634159E+00  -.208859612328E+00  -.243068186653E+00
  -.280364610067E+00  -.320808124828E+00  -.364414251029E+00
 pseudo wavefunction
   .123071488383E-12   .135472056341E-12   .149122093917E-12   .164147496500E-12   .180686844580E-12
   .198892681886E-12   .218932922314E-12   .240992398604E-12   .265274567070E-12   .292003384094E-12
   .321425371694E-12   .353811891214E-12   .389461646114E-12   .428703436933E-12   .471899193847E-12
   .519447314774E-12   .571786339836E-12   .629398996044E-12   .692816649531E-12   .762624206385E-12
   .839465507279E-12   .924049265671E-12   .101715560432E-11   .111964325043E-11   .123245745575E-11
   .135663871469E-11   .149333236092E-11   .164379913085E-11   .180942679152E-11   .199174294005E-11
   .219242909281E-11   .241333619422E-11   .265650168806E-11   .292416830909E-11   .321880476786E-11
   .354312851991E-11   .390013082905E-11   .429310435597E-11   .472567352679E-11   .520182796139E-11
   .572595926998E-11   .630290155726E-11   .693797600779E-11   .763703996364E-11   .840654094715E-11
   .925357612691E-11   .101859577755E-10   .112122853228E-10   .123420246688E-10   .135855954891E-10
   .149544673354E-10   .164612654209E-10   .181198870633E-10   .199456298605E-10   .219553327822E-10
   .241675314763E-10   .266026292252E-10   .292830851263E-10   .322336212344E-10   .354814505748E-10
   .390565281309E-10   .429918271219E-10   .473236431165E-10   .520919287899E-10   .573406624106E-10
   .631182534546E-10   .694779890898E-10   .764785256474E-10   .841844296135E-10   .926667731301E-10
   .102003789499E-09   .112281594731E-09   .123594981804E-09   .136048294941E-09   .149756391985E-09
   .164845703742E-09   .181455400060E-09   .199738673398E-09   .219864151736E-09   .242017453839E-09
   .266402901225E-09   .293245402645E-09   .322792528418E-09   .355316793798E-09   .391118172388E-09
   .430526862817E-09   .473906334179E-09   .521656678328E-09   .574218299942E-09   .632075978398E-09
   .695763338915E-09   .765867774199E-09   .843035861991E-09   .927979328479E-09   .102148161257E-08
   .112440509157E-08   .123769903493E-08   .136240835936E-08   .149968326612E-08   .165078984938E-08
   .181712177335E-08   .200021312616E-08   .220175256866E-08   .242359890900E-08   .266779824640E-08
   .293660284225E-08   .323249189275E-08   .355819439441E-08   .391671431354E-08   .431135829170E-08
   .474576614268E-08   .522394442235E-08   .575030338081E-08   .632969763785E-08   .696747095668E-08
   .766950552893E-08   .844227622552E-08   .929291031360E-08   .102292531904E-07   .112599407402E-07
   .123944789817E-07   .136433317402E-07   .150180171539E-07   .165312139026E-07   .181968781407E-07
   .200303722111E-07   .220486063281E-07   .242701945350E-07   .267156263756E-07   .294074558621E-07
   .323705094823E-07   .356321151642E-07   .392223543094E-07   .431743392195E-07   .475245184745E-07
   .523130130774E-07   .575839864671E-07   .633860518092E-07   .697727203227E-07   .768028947742E-07
   .845414126924E-07   .930596443093E-07   .102436150744E-06   .112757408495E-06   .124118606924E-06
   .136624526081E-06   .150390502966E-06   .165543495135E-06   .182223251455E-06   .200583600807E-06
   .220793870606E-06   .243040448226E-06   .267528499719E-06   .294483861669E-06   .324155123620E-06
   .356815920276E-06   .392767454599E-06   .432341275049E-06   .475902332576E-06   .523852345525E-06
   .576633503467E-06   .634732544077E-06   .698685240635E-06   .769081341479E-06   .846570006935E-06
   .931865793785E-06   .102575524242E-05   .112910412731E-05   .124286543764E-05   .136808816153E-05
   .150592695468E-05   .165765278265E-05   .182466463451E-05   .200850241583E-05   .221086113958E-05
   .243360654559E-05   .267879229224E-05   .294867887854E-05   .324575447058E-05   .357275782396E-05
   .393270351284E-05   .432890969765E-05   .476502868641E-05   .524508057074E-05   .577349024528E-05
   .635512815058E-05   .699535511342E-05   .770007169614E-05   .847577250767E-05   .932960597438E-05
   .102694401186E-04   .113039349480E-04   .124426221179E-04   .136959925975E-04   .150755931407E-04
   .165941324446E-04   .182655979666E-04   .201053844661E-04   .221304354461E-04   .243593987831E-04
   .268127979665E-04   .295132205065E-04   .324855252248E-04   .357570703155E-04   .393579642469E-04
   .433213417817E-04   .476836676204E-04   .524850704160E-04   .577697101831E-04   .635861824204E-04
   .699879625933E-04   .770338949808E-04   .847887302832E-04   .933237168192E-04   .102717250612E-03
   .113055590177E-03   .124433642400E-03   .136955826496E-03   .150737023734E-03   .165903621352E-03
   .182594659871E-03   .200963093951E-03   .221177177840E-03   .243421987569E-03   .267901093179E-03
   .294838395501E-03   .324480143417E-03   .357097148971E-03   .392987219348E-03   .432477826488E-03
   .475929036978E-03   .523736726978E-03   .576336109137E-03   .634205600879E-03   .697871066057E-03
   .767910464783E-03   .844958949255E-03   .929714446679E-03   .102294377383E-02   .112548933158E-02
   .123827643155E-02   .136232131152E-02   .149873990031E-02   .164875739804E-02   .181371874209E-02
   .199510003473E-02   .219452101337E-02   .241375865022E-02   .265476197351E-02   .291966820837E-02
   .321082034095E-02   .353078621512E-02   .388237927636E-02   .426868108235E-02   .469306570438E-02
   .515922614719E-02   .567120291746E-02   .623341487253E-02   .685069248031E-02   .752831361872E-02
   .827204203761E-02   .908816859727E-02   .998355538495E-02   .109656827929E-01   .120426996179E-01
   .132234762113E-01   .145176606693E-01   .159357380057E-01   .174890921858E-01   .191900708288E-01
   .210520522955E-01   .230895147695E-01   .253181068133E-01   .277547187257E-01   .304175538528E-01
   .333261987905E-01   .365016911788E-01   .399665835049E-01   .437450010145E-01   .478626914649E-01
   .523470640407E-01   .572272142945E-01   .625339314594E-01   .682996839178E-01   .745585779981E-01
   .813462846110E-01   .886999275454E-01   .966579265188E-01   .105259787358E+00   .114545830968E+00
   .124556852114E+00   .135333698446E+00   .146916759841E+00   .159345357940E+00   .172657025885E+00
   .186886668896E+00   .202065597394E+00   .218220426304E+00   .235371836880E+00   .253533201313E+00
   .272709075537E+00   .292893572515E+00   .314068636837E+00   .336202252239E+00   .359246626614E+00
   .383136414564E+00   .407787055447E+00   .433093325219E+00   .458928222672E+00   .485142334328E+00
   .511563846138E+00   .537999392518E+00   .564235951810E+00   .590044008664E+00   .615182203951E+00
   .639403676164E+00   .662464258478E+00   .684132625064E+00   .704202370416E+00   .722505847710E+00
   .738929378044E+00   .753429165519E+00   .766046910513E+00   .776923708727E+00   .786310369616E+00
   .794571811417E+00   .802182735993E+00   .809711423208E+00   .817788306338E+00   .827056121721E+00
   .838099019636E+00   .851349252462E+00   .866997046100E+00
 ae wavefunction
   .364162612847E-10   .399027746019E-10   .436842130408E-10   .477886602438E-10   .522466387590E-10
   .570913433867E-10   .623588952130E-10   .680886186867E-10   .743233438506E-10   .811097359519E-10
   .884986555871E-10   .965455516003E-10   .105310890625E-09   .114860626003E-09   .125266710677E-09
   .136607657467E-09   .148969152116E-09   .162444722849E-09   .177136473240E-09   .193155884803E-09
   .210624692860E-09   .229675846660E-09   .250454559451E-09   .273119458125E-09   .297843840681E-09
   .324817054381E-09   .354246002799E-09   .386356797198E-09   .421396564764E-09   .459635428384E-09
   .501368675672E-09   .546919134786E-09   .596639776818E-09   .650916567464E-09   .710171591358E-09
   .774866475807E-09   .845506142942E-09   .922642922100E-09   .100688105738E-08   .109888164886E-08
   .119936806963E-08   .130913190483E-08   .142903946376E-08   .156003892072E-08   .170316814595E-08
   .185956329409E-08   .203046822408E-08   .221724483171E-08   .242138438419E-08   .264451995463E-08
   .288844006415E-08   .315510364965E-08   .344665648860E-08   .376544922055E-08   .411405712467E-08
   .449530182582E-08   .491227511786E-08   .536836510740E-08   .586728491773E-08   .641310419047E-08
   .701028366921E-08   .766371316797E-08   .837875325029E-08   .916128099453E-08   .100177402361E-07
   .109551967399E-07   .119813987749E-07   .131048436351E-07   .143348506829E-07   .156816415690E-07
   .171564283180E-07   .187715100744E-07   .205403793515E-07   .224778387174E-07   .246001289571E-07
   .269250698336E-07   .294722146898E-07   .322630202590E-07   .353210331853E-07   .386720948881E-07
   .423445665963E-07   .463695765229E-07   .507812913753E-07   .556172145827E-07   .609185138915E-07
   .667303812028E-07   .731024278351E-07   .800891187008E-07   .877502492194E-07   .961514691642E-07
   .105364858111E-06   .115469557445E-06   .126552464639E-06   .138708995789E-06   .152043923176E-06
   .166672295226E-06   .182720446896E-06   .200327109419E-06   .219644629118E-06   .240840305967E-06
   .264097863638E-06   .289619063909E-06   .317625479529E-06   .348360441050E-06   .382091174608E-06
   .419111149300E-06   .459742654567E-06   .504339630083E-06   .553290772586E-06   .607022946829E-06
   .666004929943E-06   .730751521849E-06   .801828057054E-06   .879855356834E-06   .965515164453E-06
   .105955611009E-05   .116280025670E-05   .127615028289E-05   .140059736418E-05   .153722981990E-05
   .168724259939E-05   .185194768800E-05   .203278552122E-05   .223133750333E-05   .244933973626E-05
   .268869807416E-05   .295150463000E-05   .324005587231E-05   .355687246329E-05   .390472100289E-05
   .428663785972E-05   .470595528564E-05   .516633002907E-05   .567177468219E-05   .622669201861E-05
   .683591260124E-05   .750473596587E-05   .823897571371E-05   .904500887602E-05   .992982994667E-05
   .109011100143E-04   .119672614638E-04   .131375087592E-04   .144219658645E-04   .158317209091E-04
   .173789287572E-04   .190769121968E-04   .209402725295E-04   .229850104048E-04   .252286578196E-04
   .276904222794E-04   .303913442030E-04   .333544687429E-04   .366050332939E-04   .401706720638E-04
   .440816391981E-04   .483710520690E-04   .530751564708E-04   .582336156042E-04   .638898248810E-04
   .700912547408E-04   .768898238440E-04   .843423051851E-04   .925107678667E-04   .101463057481E-03
   .111273318262E-03   .122022560414E-03   .133799276244E-03   .146700109026E-03   .160830578754E-03
   .176305869259E-03   .193251681454E-03   .211805157802E-03   .232115883402E-03   .254346969466E-03
   .278676225296E-03   .305297425238E-03   .334421677475E-03   .366278901907E-03   .401119424759E-03
   .439215697948E-03   .480864151674E-03   .526387189052E-03   .576135332051E-03   .630489528357E-03
   .689863629164E-03   .754707048260E-03   .825507613098E-03   .902794618832E-03   .987142096564E-03
   .107917230726E-02   .117955947293E-02   .128903375669E-02   .140838550349E-02   .153846975288E-02
   .168021103536E-02   .183460846311E-02   .200274112574E-02   .218577380085E-02   .238496298841E-02
   .260166327705E-02   .283733404880E-02   .309354652775E-02   .337199117584E-02   .367448543741E-02
   .400298183136E-02   .435957638729E-02   .474651741888E-02   .516621462408E-02   .562124849820E-02
   .611438004120E-02   .664856073611E-02   .722694277011E-02   .785288946426E-02   .852998587180E-02
   .926204949870E-02   .100531410937E-01   .109075754480E-01   .118299321394E-01   .128250661481E-01
   .138981182669E-01   .150545252234E-01   .163000294262E-01   .176406882407E-01   .190828826921E-01
   .206333254758E-01   .222990681247E-01   .240875071397E-01   .260063888102E-01   .280638123651E-01
   .302682309794E-01   .326284500727E-01   .351536222909E-01   .378532386091E-01   .407371151551E-01
   .438153756190E-01   .470984294411E-01   .505969462786E-01   .543218274529E-01   .582841750516E-01
   .624952590496E-01   .669664822840E-01   .717093425716E-01   .767353909770E-01   .820561852765E-01
   .876832380420E-01   .936279591025E-01   .999015924331E-01   .106515147548E+00   .113479325472E+00
   .120804439225E+00   .128500328693E+00   .136576269804E+00   .145040877911E+00   .153902005508E+00
   .163166634463E+00   .172840763291E+00   .182929290071E+00   .193435892087E+00   .204362903338E+00
   .215711191603E+00   .227480036931E+00   .239667013788E+00   .252267879332E+00   .265276470379E+00
   .278684611557E+00   .292482036785E+00   .306656325449E+00   .321192853658E+00   .336074759577E+00
   .351282920649E+00   .366795940161E+00   .382590142265E+00   .398639579813E+00   .414916070627E+00
   .431389296445E+00   .448027025089E+00   .464795544227E+00   .481660402252E+00   .498587483879E+00
   .515544212697E+00   .532500216326E+00   .549426313934E+00   .566290869096E+00   .583054117619E+00
   .599663546485E+00   .616054190790E+00   .632154364655E+00   .647892620189E+00   .663201707826E+00
   .678019212912E+00   .692286784216E+00   .705949426321E+00   .718955346229E+00   .731256330534E+00
   .742808466292E+00   .753572993512E+00   .763517114721E+00   .772614653765E+00   .780846523393E+00
   .788201010798E+00   .794673915509E+00   .800268582718E+00   .804995872712E+00   .808874100794E+00
   .811928973799E+00   .814193541765E+00   .815708170622E+00   .816520406978E+00   .816684929359E+00
   .816263705621E+00   .815325973941E+00   .813948124649E+00   .812213451655E+00   .810211755386E+00
   .808038794406E+00   .805795632661E+00   .803587985355E+00   .801525724708E+00   .799722759141E+00
   .798297535983E+00   .797374427950E+00   .797086210867E+00   .797577628549E+00   .799009473157E+00
   .801561504243E+00   .805431186289E+00   .810825182559E+00   .817944206273E+00   .826968670329E+00
   .838055438329E+00   .851348628730E+00   .866997046100E+00
 pseudo wavefunction
   .106848491015E-12   .117614444938E-12   .129465166299E-12   .142509955247E-12   .156869124915E-12
   .172675111073E-12   .190073693594E-12   .209225340998E-12   .230306690459E-12   .253512176948E-12
   .279055826523E-12   .307173230306E-12   .338123717358E-12   .372192746495E-12   .409694539095E-12
   .450974977188E-12   .496414793551E-12   .546433083241E-12   .601491168936E-12   .662096855759E-12
   .728809114795E-12   .802243238536E-12   .883076515765E-12   .972054478245E-12   .106999777682E-11
   .117780975035E-11   .129648475725E-11   .142711734658E-11   .157091235311E-11   .172919600964E-11
   .190342817894E-11   .209521581818E-11   .230632780000E-11   .253871122701E-11   .279450939002E-11
   .307608153582E-11   .338602462667E-11   .372719729230E-11   .410274619526E-11   .451613505286E-11
   .497117658329E-11   .547206767060E-11   .602342807292E-11   .663034303082E-11   .729841016890E-11
   .803379112308E-11   .884326836988E-11   .973430778169E-11   .107151274851E-10   .117947736573E-10
   .129832039597E-10   .142913793780E-10   .157313653166E-10   .173164428782E-10   .190612313569E-10
   .209818230727E-10   .230959317922E-10   .254230561042E-10   .279846592564E-10   .308043671125E-10
   .339081860552E-10   .373247428453E-10   .410855486479E-10   .452252896621E-10   .497821470349E-10
   .547981490075E-10   .603195585456E-10   .663973000254E-10   .730874289126E-10   .804516487658E-10
   .885578803320E-10   .974808879847E-10   .107302969280E-09   .118114713992E-09   .130015839628E-09
   .143116111129E-09   .157536353237E-09   .173409564872E-09   .190882145784E-09   .210115246807E-09
   .231286256165E-09   .254590435526E-09   .280242720916E-09   .308479705080E-09   .339561819588E-09
   .373775736807E-09   .411437013890E-09   .452893003172E-09   .498526055812E-09   .548757048229E-09
   .604049263853E-09   .664912666006E-09   .731908601297E-09   .805654976932E-09   .886831959680E-09
   .976188249055E-09   .107454798257E-08   .118281833676E-08   .130199789406E-08   .143318585270E-08
   .157759216463E-08   .173654869481E-08   .191152150501E-08   .210412437520E-08   .231613368738E-08
   .254950480903E-08   .280639012732E-08   .308915890046E-08   .340041910907E-08   .374304150940E-08
   .412018610996E-08   .453533131587E-08   .499230600972E-08   .549532486476E-08   .604902721615E-08
   .665851984863E-08   .732942409541E-08   .806792768243E-08   .888084179632E-08   .977566390214E-08
   .107606468904E-07   .118448751908E-07   .130383485550E-07   .143520742807E-07   .157981687275E-07
   .173899690611E-07   .191421562558E-07   .210708904900E-07   .231939601827E-07   .255309460461E-07
   .281034016667E-07   .309350522796E-07   .340520135692E-07   .374830325152E-07   .412597525015E-07
   .454170051362E-07   .499931314705E-07   .550303355796E-07   .605750737657E-07   .666784829705E-07
   .733968523485E-07   .807921423467E-07   .889325560791E-07   .978931682598E-07   .107756617496E-06
   .118613868321E-06   .130565049991E-06   .143720379781E-06   .158201179280E-06   .174140993075E-06
   .191686820101E-06   .211000469039E-06   .232260050229E-06   .255661617858E-06   .281420977552E-06
   .309775676026E-06   .340987191126E-06   .375343342442E-06   .413160944688E-06   .454788728306E-06
   .500610554187E-06   .551048952107E-06   .606569015489E-06   .667682688323E-06   .734953483740E-06
   .809001677669E-06   .890510025374E-06   .980230053512E-06   .107898898558E-05   .118769736452E-05
   .130735744252E-05   .143907241530E-05   .158405658574E-05   .174364655024E-05   .191931351079E-05
   .211267682578E-05   .232551892417E-05   .255980171986E-05   .281768467728E-05   .310154469373E-05
   .341399798130E-05   .375792414887E-05   .413649270529E-05   .455319222656E-05   .501186245459E-05
   .551672962136E-05   .607244532215E-05   .668412929359E-05   .735741648792E-05   .809850887386E-05
   .891423243760E-05   .981209990429E-05   .108003797527E-04   .118881721523E-04   .130854925153E-04
   .144033634238E-04   .158539157689E-04   .174505000216E-04   .192078086450E-04   .211420107597E-04
   .232709002812E-04   .256140588720E-04   .281930351799E-04   .310315419821E-04   .341556730111E-04
   .375941414153E-04   .413785419967E-04   .455436395777E-04   .501276860803E-04   .551727691500E-04
   .607251954337E-04   .668359119208E-04   .735609690877E-04   .809620299434E-04   .891069294717E-04
   .980702893896E-04   .107934193618E-03   .118788930364E-03   .130733807282E-03   .143878046784E-03
   .158341769220E-03   .174257072402E-03   .191769216689E-03   .211037925718E-03   .232238813799E-03
   .255564951963E-03   .281228585751E-03   .309463018988E-03   .340524679051E-03   .374695380480E-03
   .412284805249E-03   .453633219559E-03   .499114448692E-03   .549139133238E-03   .604158291896E-03
   .664667218054E-03   .731209739467E-03   .804382872578E-03   .884841905331E-03   .973305944773E-03
   .107056396818E-02   .117748141902E-02   .129500739165E-02   .142418245116E-02   .156614713729E-02
   .172215120392E-02   .189356364757E-02   .208188358066E-02   .228875200666E-02   .251596455557E-02
   .276548523858E-02   .303946128053E-02   .334023908738E-02   .367038140340E-02   .403268570856E-02
   .443020390026E-02   .486626329545E-02   .534448897725E-02   .586882749595E-02   .644357191479E-02
   .707338816760E-02   .776334266528E-02   .851893105221E-02   .934610796875E-02   .102513176227E-01
   .112415249076E-01   .123242467289E-01   .135075831068E-01   .148002475171E-01   .162115958031E-01
   .177516528432E-01   .194311359844E-01   .212614740536E-01   .232548205230E-01   .254240591439E-01
   .277828000592E-01   .303453640595E-01   .331267522648E-01   .361425980759E-01   .394090977600E-01
   .429429155052E-01   .467610581965E-01   .508807145414E-01   .553190525069E-01   .600929683282E-01
   .652187796325E-01   .707118544993E-01   .765861675819E-01   .828537737780E-01   .895241893958E-01
   .966036703839E-01   .104094377033E+00   .111993414711E+00   .120291740764E+00   .128972928790E+00
   .138011783290E+00   .147372800261E+00   .157008472933E+00   .166857446603E+00   .176842532743E+00
   .186868600275E+00   .196820371436E+00   .206560160972E+00   .215925610685E+00   .224727486426E+00
   .232747621249E+00   .239737106235E+00   .245414848494E+00   .249466633080E+00   .251544840165E+00
   .251268978795E+00   .248227200896E+00   .241978950616E+00   .232058880379E+00   .217982121849E+00
   .199250932668E+00   .175362644263E+00   .145818709275E+00   .110134489019E+00   .678492354746E-01
   .185355190416E-01  -.381928484492E-01  -.102675514892E+00  -.175204122875E+00  -.256025836007E+00
  -.345352737543E+00  -.443377381863E+00  -.550293744686E+00  -.666321240447E+00  -.791727270539E+00
  -.926840909138E+00  -.107204690715E+01  -.122777196239E+01
 ae wavefunction
   .427805641550E-10   .468764030060E-10   .513187098351E-10   .561404763727E-10   .613775594938E-10
   .670689553459E-10   .732570977802E-10   .799881838515E-10   .873125288703E-10   .952849536180E-10
   .103965207434E-09   .113418429778E-09   .123715654847E-09   .134934362435E-09   .147159080478E-09
   .160482043234E-09   .175003911480E-09   .190834559081E-09   .208093933940E-09   .226913000861E-09
   .247434770485E-09   .269815427209E-09   .294225562773E-09   .320851526834E-09   .349896904188E-09
   .381584133779E-09   .416156279144E-09   .453878968384E-09   .495042518430E-09   .539964260819E-09
   .588991089794E-09   .642502253344E-09   .700912410403E-09   .764674980904E-09   .834285816148E-09
   .910287220897E-09   .993272361285E-09   .108389009591E-08   .118285027117E-08   .129092952606E-08
   .140897765588E-08   .153792458933E-08   .167878803863E-08   .183268188840E-08   .200082539519E-08
   .218455327696E-08   .238532677923E-08   .260474581349E-08   .284456227265E-08   .310669463871E-08
   .339324400908E-08   .370651168022E-08   .404901844299E-08   .442352575374E-08   .483305896836E-08
   .528093284189E-08   .577077951539E-08   .630657922880E-08   .689269404140E-08   .753390483902E-08
   .823545196173E-08   .900307980809E-08   .984308579837E-08   .107623741382E-07   .117685148417E-07
   .128698085458E-07   .140753576726E-07   .153951445744E-07   .168401173441E-07   .184222840544E-07
   .201548162384E-07   .220521625432E-07   .241301735484E-07   .264062388443E-07   .288994375938E-07
   .316307038930E-07   .346230083936E-07   .379015577902E-07   .414940139386E-07   .454307345245E-07
   .497450374264E-07   .544734910882E-07   .596562334810E-07   .653373224512E-07   .715651205688E-07
   .783927178534E-07   .858783961155E-07   .940861390134E-07   .103086192315E-06   .112955679298E-06
   .123779276763E-06   .135649957501E-06   .148669805903E-06   .162950913767E-06   .178616364233E-06
   .195801312524E-06   .214654172915E-06   .235337922418E-06   .258031532611E-06   .282931542133E-06
   .310253783635E-06   .340235280346E-06   .373136328764E-06   .409242785727E-06   .448868579804E-06
   .492358468913E-06   .540091068137E-06   .592482174169E-06   .649988415117E-06   .713111257550E-06
   .782401405248E-06   .858463627953E-06   .941962061658E-06   .103362602624E-05   .113425641056E-05
   .124473267977E-05   .136602056521E-05   .149918050250E-05   .164537689013E-05   .180588824750E-05
   .198211835886E-05   .217560849787E-05   .238805083639E-05   .262130315084E-05   .287740495023E-05
   .315859516154E-05   .346733152094E-05   .380631183290E-05   .417849727501E-05   .458713794183E-05
   .503580084017E-05   .552840056709E-05   .606923292322E-05   .666301173769E-05   .731490920588E-05
   .803060006898E-05   .881630999382E-05   .967886854461E-05   .106257671732E-04   .116652226928E-04
   .128062467421E-04   .140587217917E-04   .154334842944E-04   .169424156328E-04   .185985415771E-04
   .204161410276E-04   .224108648820E-04   .245998659456E-04   .270019408757E-04   .296376852401E-04
   .325296628625E-04   .357025907222E-04   .391835407891E-04   .430021602835E-04   .471909119795E-04
   .517853362993E-04   .568243370929E-04   .623504931483E-04   .684103976416E-04   .750550279144E-04
   .823401481513E-04   .903267477328E-04   .990815182529E-04   .108677372417E-03   .119194008282E-03
   .130718522549E-03   .143346076910E-03   .157180621709E-03   .172335681523E-03   .188935207536E-03
   .207114501987E-03   .227021220246E-03   .248816456519E-03   .272675919510E-03   .298791204809E-03
   .327371171173E-03   .358643428302E-03   .392855944152E-03   .430278780282E-03   .471205964208E-03
   .515957508156E-03   .564881584152E-03   .618356865768E-03   .676795047385E-03   .740643552218E-03
   .810388440836E-03   .886557532282E-03   .969723750306E-03   .106050870754E-02   .115958654075E-02
   .126768801053E-02   .138560487897E-02   .151419457881E-02   .165438518781E-02   .180718072153E-02
   .197366675786E-02   .215501640587E-02   .235249663116E-02   .256747494897E-02   .280142649533E-02
   .305594148535E-02   .333273306602E-02   .363364556931E-02   .396066316905E-02   .431591894260E-02
   .470170433553E-02   .512047902402E-02   .557488116629E-02   .606773802977E-02   .660207697636E-02
   .718113678259E-02   .780837926602E-02   .848750118263E-02   .922244635330E-02   .100174179702E-01
   .108768910260E-01   .118056248008E-01   .128086753339E-01   .138914077996E-01   .150595086974E-01
   .163189977619E-01   .176762394892E-01   .191379541709E-01   .207112283195E-01   .224035243557E-01
   .242226894082E-01   .261769630431E-01   .282749836801E-01   .305257933676E-01   .329388404781E-01
   .355239797548E-01   .382914690290E-01   .412519618780E-01   .444164955450E-01   .477964736280E-01
   .514036433590E-01   .552500676703E-01   .593480926115E-01   .637103109048E-01   .683495223974E-01
   .732786917982E-01   .785109034641E-01   .840593123538E-01   .899370899372E-01   .961573638866E-01
   .102733150818E+00   .109677281735E+00   .117002320171E+00   .124720473044E+00   .132843494241E+00
   .141382580760E+00   .150348261200E+00   .159750276387E+00   .169597451945E+00   .179897562840E+00
   .190657190043E+00   .201881569766E+00   .213574435924E+00   .225737856911E+00   .238372067967E+00
   .251475300937E+00   .265043613498E+00   .279070720333E+00   .293547828976E+00   .308463483192E+00
   .323803416621E+00   .339550419032E+00   .355684216606E+00   .372181366499E+00   .389015164371E+00
   .406155562150E+00   .423569092958E+00   .441218801995E+00   .459064188366E+00   .477061175632E+00
   .495162150253E+00   .513316136745E+00   .531469209417E+00   .549565247143E+00   .567547058073E+00
   .585357631745E+00   .602940759887E+00   .620239740817E+00   .637193111790E+00   .653728148247E+00
   .669755628983E+00   .685170185825E+00   .699856719692E+00   .713698094436E+00   .726579397114E+00
   .738388466027E+00   .749014861048E+00   .758348915753E+00   .766281400893E+00   .772703756037E+00
   .777508669414E+00   .780590764186E+00   .781847196669E+00   .781178049288E+00   .778486476395E+00
   .773678614568E+00   .766663294732E+00   .757351600341E+00   .745656310801E+00   .731491259847E+00
   .714770627250E+00   .695408171693E+00   .673316398083E+00   .648405539957E+00   .620582511048E+00
   .589749898289E+00   .555804663315E+00   .518636623625E+00   .478126696693E+00   .434144919873E+00
   .386548279113E+00   .335178419263E+00   .279859331074E+00   .220395104155E+00   .156567788428E+00
   .881353086528E-01   .148292267369E-01  -.636480465184E-01  -.147627167477E+00  -.237477462695E+00
  -.333614145123E+00  -.436505335674E+00  -.546674670301E+00  -.664694969827E+00  -.791173876756E+00
  -.926740856811E+00  -.107204603447E+01  -.122777196239E+01
 End of Dataset
 PAW_PBE Mn_pv 07Sep2000
 13.0000000000000000
 parameters from PSCTR are:
   VRHFIN =Mn: 3p4s3d
   LEXCH  = PE
   EATOM  =  2024.8347 eV,  148.8212 Ry

   TITEL  = PAW_PBE Mn_pv 07Sep2000
   LULTRA =        F    use ultrasoft PP ?
   IUNSCR =        1    unscreen: 0-lin 1-nonlin 2-no
   RPACOR =    2.080    partial core radius
   POMASS =   54.938; ZVAL   =   13.000    mass and valenz
   RCORE  =    2.300    outmost cutoff radius
   RWIGS  =    2.500; RWIGS  =    1.323    wigner-seitz radius (au A)
   ENMAX  =  269.865; ENMIN  =  202.399 eV
   RCLOC  =    1.725    cutoff for local pot
   LCOR   =        T    correct aug charges
   LPAW   =        T    paw PP
   EAUG   =  569.085
   DEXC   =    -.003
   RMAX   =    2.807    core radius for proj-oper
   RAUG   =    1.300    factor for augmentation sphere
   RDEP   =    2.338    radius for radial grids
   QCUT   =   -4.454; QGAM   =    8.907    optimization parameters
 
   Description
     l     E      TYP  RCUT    TYP  RCUT
     1   .000     23  2.000
     1  -.100     23  2.000
     2   .000     23  2.300
     2   .000     23  2.300
     0   .000     23  2.300
     0   .000     23  2.300
     3   .000      7   .000
   Error from kinetic energy argument (eV)
   NDATA  =      100
   STEP   =   20.000   1.050
  193.      191.      190.      187.      186.      183.      180.      179.
  175.      172.      170.      166.      162.      158.      154.      149.
  145.      140.      136.      128.      124.      119.      111.      106.
  102.      94.2      87.1      82.4      75.5      68.9      62.5      56.5
  50.7      45.3      40.3      35.6      29.9      26.0      21.4      18.3
  14.8      11.7      9.19      7.09      5.37      4.00      2.92      1.91
  1.33      .811      .478      .307      .176      .107      .719E-01  .629E-01
  .611E-01  .603E-01  .571E-01  .504E-01  .415E-01  .320E-01  .232E-01  .153E-01
  .106E-01  .751E-02  .615E-02  .572E-02  .553E-02  .520E-02  .450E-02  .358E-02
  .267E-02  .193E-02  .140E-02  .116E-02  .105E-02  .983E-03  .876E-03  .740E-03
  .576E-03  .438E-03  .345E-03  .289E-03  .257E-03  .229E-03  .197E-03  .160E-03
  .127E-03  .102E-03  .849E-04  .756E-04  .668E-04  .570E-04  .451E-04  .353E-04
  .301E-04  .281E-04  .246E-04  .194E-04
END of PSCTR-controll parameters
 local part
 81.2582175088937078
   .13482724E+03   .13480548E+03   .13474030E+03   .13463175E+03   .13447996E+03
   .13428510E+03   .13404739E+03   .13376710E+03   .13344456E+03   .13308011E+03
   .13267415E+03   .13222714E+03   .13173955E+03   .13121191E+03   .13064477E+03
   .13003873E+03   .12939442E+03   .12871253E+03   .12799374E+03   .12723880E+03
   .12644849E+03   .12562362E+03   .12476502E+03   .12387357E+03   .12295017E+03
   .12199576E+03   .12101128E+03   .11999773E+03   .11895610E+03   .11788743E+03
   .11679276E+03   .11567316E+03   .11452970E+03   .11336348E+03   .11217560E+03
   .11096718E+03   .10973933E+03   .10849319E+03   .10722990E+03   .10595059E+03
   .10465642E+03   .10334852E+03   .10202804E+03   .10069611E+03   .99353890E+02
   .98002501E+02   .96643071E+02   .95276719E+02   .93904554E+02   .92527672E+02
   .91147158E+02   .89764080E+02   .88379492E+02   .86994432E+02   .85609917E+02
   .84226949E+02   .82846507E+02   .81469548E+02   .80097012E+02   .78729810E+02
   .77368834E+02   .76014949E+02   .74668995E+02   .73331787E+02   .72004112E+02
   .70686730E+02   .69380372E+02   .68085743E+02   .66803515E+02   .65534333E+02
   .64278812E+02   .63037537E+02   .61811061E+02   .60599909E+02   .59404574E+02
   .58225518E+02   .57063175E+02   .55917947E+02   .54790204E+02   .53680289E+02
   .52588512E+02   .51515156E+02   .50460472E+02   .49424682E+02   .48407979E+02
   .47410529E+02   .46432467E+02   .45473901E+02   .44534912E+02   .43615555E+02
   .42715858E+02   .41835823E+02   .40975427E+02   .40134625E+02   .39313345E+02
   .38511495E+02   .37728960E+02   .36965603E+02   .36221267E+02   .35495776E+02
   .34788932E+02   .34100523E+02   .33430315E+02   .32778062E+02   .32143499E+02
   .31526347E+02   .30926314E+02   .30343094E+02   .29776369E+02   .29225811E+02
   .28691081E+02   .28171830E+02   .27667702E+02   .27178332E+02   .26703350E+02
   .26242379E+02   .25795038E+02   .25360942E+02   .24939701E+02   .24530925E+02
   .24134222E+02   .23749198E+02   .23375462E+02   .23012620E+02   .22660284E+02
   .22318065E+02   .21985580E+02   .21662447E+02   .21348293E+02   .21042745E+02
   .20745441E+02   .20456022E+02   .20174138E+02   .19899445E+02   .19631610E+02
   .19370304E+02   .19115212E+02   .18866026E+02   .18622446E+02   .18384186E+02
   .18150967E+02   .17922522E+02   .17698597E+02   .17478946E+02   .17263335E+02
   .17051543E+02   .16843359E+02   .16638585E+02   .16437033E+02   .16238527E+02
   .16042903E+02   .15850009E+02   .15659703E+02   .15471854E+02   .15286343E+02
   .15103061E+02   .14921909E+02   .14742799E+02   .14565654E+02   .14390404E+02
   .14216990E+02   .14045361E+02   .13875476E+02   .13707301E+02   .13540809E+02
   .13375982E+02   .13212807E+02   .13051280E+02   .12891400E+02   .12733172E+02
   .12576608E+02   .12421722E+02   .12268533E+02   .12117063E+02   .11967339E+02
   .11819387E+02   .11673239E+02   .11528925E+02   .11386478E+02   .11245933E+02
   .11107323E+02   .10970681E+02   .10836042E+02   .10703439E+02   .10572901E+02
   .10444460E+02   .10318143E+02   .10193975E+02   .10071981E+02   .99521799E+01
   .98345903E+01   .97192262E+01   .96060989E+01   .94952160E+01   .93865818E+01
   .92801966E+01   .91760573E+01   .90741565E+01   .89744836E+01   .88770236E+01
   .87817580E+01   .86886643E+01   .85977165E+01   .85088847E+01   .84221355E+01
   .83374321E+01   .82547345E+01   .81739993E+01   .80951803E+01   .80182286E+01
   .79430927E+01   .78697186E+01   .77980504E+01   .77280301E+01   .76595984E+01
   .75926943E+01   .75272557E+01   .74632197E+01   .74005227E+01   .73391006E+01
   .72788894E+01   .72198249E+01   .71618436E+01   .71048821E+01   .70488783E+01
   .69937709E+01   .69395000E+01   .68860071E+01   .68332355E+01   .67811303E+01
   .67296388E+01   .66787104E+01   .66282970E+01   .65783529E+01   .65288352E+01
   .64797034E+01   .64309201E+01   .63824508E+01   .63342636E+01   .62863300E+01
   .62386241E+01   .61911232E+01   .61438078E+01   .60966609E+01   .60496689E+01
   .60028208E+01   .59561088E+01   .59095274E+01   .58630741E+01   .58167489E+01
   .57705543E+01   .57244950E+01   .56785780E+01   .56328124E+01   .55872089E+01
   .55417803E+01   .54965408E+01   .54515061E+01   .54066930E+01   .53621195E+01
   .53178045E+01   .52737677E+01   .52300293E+01   .51866098E+01   .51435302E+01
   .51008114E+01   .50584742E+01   .50165391E+01   .49750265E+01   .49339559E+01
   .48933463E+01   .48532159E+01   .48135817E+01   .47744599E+01   .47358654E+01
   .46978121E+01   .46603121E+01   .46233766E+01   .45870149E+01   .45512351E+01
   .45160435E+01   .44814451E+01   .44474430E+01   .44140389E+01   .43812326E+01
   .43490226E+01   .43174056E+01   .42863769E+01   .42559299E+01   .42260569E+01
   .41967485E+01   .41679941E+01   .41397817E+01   .41120980E+01   .40849287E+01
   .40582583E+01   .40320704E+01   .40063479E+01   .39810726E+01   .39562258E+01
   .39317885E+01   .39077407E+01   .38840626E+01   .38607337E+01   .38377337E+01
   .38150420E+01   .37926383E+01   .37705023E+01   .37486139E+01   .37269536E+01
   .37055021E+01   .36842408E+01   .36631517E+01   .36422175E+01   .36214216E+01
   .36007483E+01   .35801829E+01   .35597115E+01   .35393212E+01   .35190004E+01
   .34987382E+01   .34785252E+01   .34583526E+01   .34382133E+01   .34181009E+01
   .33980103E+01   .33779377E+01   .33578800E+01   .33378356E+01   .33178038E+01
   .32977849E+01   .32777805E+01   .32577928E+01   .32378252E+01   .32178819E+01
   .31979679E+01   .31780890E+01   .31582517E+01   .31384631E+01   .31187310E+01
   .30990635E+01   .30794693E+01   .30599574E+01   .30405370E+01   .30212178E+01
   .30020094E+01   .29829216E+01   .29639641E+01   .29451467E+01   .29264790E+01
   .29079705E+01   .28896304E+01   .28714676E+01   .28534906E+01   .28357076E+01
   .28181262E+01   .28007537E+01   .27835965E+01   .27666606E+01   .27499515E+01
   .27334739E+01   .27172317E+01   .27012282E+01   .26854662E+01   .26699475E+01
   .26546732E+01   .26396437E+01   .26248588E+01   .26103174E+01   .25960177E+01
   .25819573E+01   .25681330E+01   .25545409E+01   .25411766E+01   .25280349E+01
   .25151102E+01   .25023962E+01   .24898861E+01   .24775728E+01   .24654484E+01
   .24535050E+01   .24417342E+01   .24301272E+01   .24186751E+01   .24073688E+01
   .23961990E+01   .23851563E+01   .23742313E+01   .23634145E+01   .23526965E+01
   .23420679E+01   .23315197E+01   .23210427E+01   .23106281E+01   .23002675E+01
   .22899525E+01   .22796753E+01   .22694283E+01   .22592045E+01   .22489972E+01
   .22388002E+01   .22286078E+01   .22184148E+01   .22082166E+01   .21980090E+01
   .21877886E+01   .21775523E+01   .21672976E+01   .21570229E+01   .21467267E+01
   .21364083E+01   .21260677E+01   .21157053E+01   .21053219E+01   .20949190E+01
   .20844987E+01   .20740634E+01   .20636162E+01   .20531603E+01   .20426995E+01
   .20322382E+01   .20217809E+01   .20113323E+01   .20008978E+01   .19904826E+01
   .19800925E+01   .19697332E+01   .19594106E+01   .19491308E+01   .19389000E+01
   .19287242E+01   .19186095E+01   .19085621E+01   .18985880E+01   .18886931E+01
   .18788831E+01   .18691636E+01   .18595399E+01   .18500172E+01   .18406002E+01
   .18312935E+01   .18221013E+01   .18130274E+01   .18040752E+01   .17952477E+01
   .17865477E+01   .17779774E+01   .17695384E+01   .17612322E+01   .17530596E+01
   .17450210E+01   .17371166E+01   .17293457E+01   .17217074E+01   .17142005E+01
   .17068230E+01   .16995728E+01   .16924472E+01   .16854431E+01   .16785572E+01
   .16717856E+01   .16651241E+01   .16585684E+01   .16521136E+01   .16457548E+01
   .16394866E+01   .16333037E+01   .16272004E+01   .16211708E+01   .16152092E+01
   .16093095E+01   .16034656E+01   .15976716E+01   .15919213E+01   .15862088E+01
   .15805281E+01   .15748733E+01   .15692388E+01   .15636189E+01   .15580084E+01
   .15524021E+01   .15467950E+01   .15411826E+01   .15355604E+01   .15299246E+01
   .15242713E+01   .15185972E+01   .15128993E+01   .15071751E+01   .15014222E+01
   .14956389E+01   .14898237E+01   .14839756E+01   .14780938E+01   .14721782E+01
   .14662290E+01   .14602466E+01   .14542320E+01   .14481865E+01   .14421119E+01
   .14360100E+01   .14298833E+01   .14237346E+01   .14175667E+01   .14113830E+01
   .14051870E+01   .13989824E+01   .13927734E+01   .13865639E+01   .13803584E+01
   .13741612E+01   .13679770E+01   .13618103E+01   .13556658E+01   .13495482E+01
   .13434621E+01   .13374122E+01   .13314030E+01   .13254391E+01   .13195247E+01
   .13136641E+01   .13078613E+01   .13021201E+01   .12964443E+01   .12908372E+01
   .12853019E+01   .12798413E+01   .12744580E+01   .12691542E+01   .12639318E+01
   .12587926E+01   .12537378E+01   .12487683E+01   .12438847E+01   .12390873E+01
   .12343760E+01   .12297504E+01   .12252097E+01   .12207529E+01   .12163784E+01
   .12120846E+01   .12078694E+01   .12037304E+01   .11996651E+01   .11956705E+01
   .11917436E+01   .11878809E+01   .11840789E+01   .11803338E+01   .11766417E+01
   .11729986E+01   .11694004E+01   .11658427E+01   .11623214E+01   .11588319E+01
   .11553700E+01   .11519314E+01   .11485116E+01   .11451065E+01   .11417119E+01
   .11383236E+01   .11349378E+01   .11315505E+01   .11281582E+01   .11247574E+01
   .11213449E+01   .11179175E+01   .11144726E+01   .11110075E+01   .11075200E+01
   .11040080E+01   .11004698E+01   .10969041E+01   .10933095E+01   .10896853E+01
   .10860309E+01   .10823460E+01   .10786307E+01   .10748853E+01   .10711103E+01
   .10673066E+01   .10634754E+01   .10596181E+01   .10557364E+01   .10518320E+01
   .10479072E+01   .10439642E+01   .10400056E+01   .10360341E+01   .10320524E+01
   .10280636E+01   .10240709E+01   .10200772E+01   .10160860E+01   .10121006E+01
   .10081243E+01   .10041604E+01   .10002123E+01   .99628346E+00   .99237701E+00
   .98849622E+00   .98464422E+00   .98082404E+00   .97703860E+00   .97329068E+00
   .96958289E+00   .96591771E+00   .96229741E+00   .95872408E+00   .95519961E+00
   .95172566E+00   .94830367E+00   .94493487E+00   .94162023E+00   .93836050E+00
   .93515617E+00   .93200752E+00   .92891455E+00   .92587705E+00   .92289459E+00
   .91996647E+00   .91709179E+00   .91426944E+00   .91149810E+00   .90877623E+00
   .90610212E+00   .90347387E+00   .90088943E+00   .89834657E+00   .89584295E+00
   .89337607E+00   .89094334E+00   .88854209E+00   .88616956E+00   .88382292E+00
   .88149930E+00   .87919584E+00   .87690962E+00   .87463777E+00   .87237741E+00
   .87012573E+00   .86787995E+00   .86563737E+00   .86339537E+00   .86115143E+00
   .85890314E+00   .85664819E+00   .85438442E+00   .85210983E+00   .84982254E+00
   .84752085E+00   .84520324E+00   .84286836E+00   .84051503E+00   .83814229E+00
   .83574934E+00   .83333559E+00   .83090064E+00   .82844430E+00   .82596654E+00
   .82346754E+00   .82094766E+00   .81840743E+00   .81584756E+00   .81326895E+00
   .81067262E+00   .80805978E+00   .80543176E+00   .80279004E+00   .80013623E+00
   .79747203E+00   .79479928E+00   .79211989E+00   .78943586E+00   .78674923E+00
   .78406214E+00   .78137673E+00   .77869519E+00   .77601970E+00   .77335245E+00
   .77069563E+00   .76805139E+00   .76542184E+00   .76280905E+00   .76021501E+00
   .75764167E+00   .75509087E+00   .75256438E+00   .75006385E+00   .74759084E+00
   .74514678E+00   .74273299E+00   .74035062E+00   .73800073E+00   .73568421E+00
   .73340181E+00   .73115411E+00   .72894157E+00   .72676446E+00   .72462293E+00
   .72251694E+00   .72044634E+00   .71841079E+00   .71640983E+00   .71444286E+00
   .71250912E+00   .71060775E+00   .70873773E+00   .70689795E+00   .70508718E+00
   .70330406E+00   .70154716E+00   .69981495E+00   .69810582E+00   .69641809E+00
   .69475002E+00   .69309983E+00   .69146567E+00   .68984569E+00   .68823801E+00
   .68664076E+00   .68505205E+00   .68347002E+00   .68189283E+00   .68031868E+00
   .67874580E+00   .67717250E+00   .67559711E+00   .67401807E+00   .67243387E+00
   .67084310E+00   .66924443E+00   .66763663E+00   .66601859E+00   .66438928E+00
   .66274782E+00   .66109343E+00   .65942545E+00   .65774335E+00   .65604675E+00
   .65433535E+00   .65260903E+00   .65086776E+00   .64911166E+00   .64734097E+00
   .64555604E+00   .64375734E+00   .64194546E+00   .64012111E+00   .63828507E+00
   .63643825E+00   .63458165E+00   .63271634E+00   .63084348E+00   .62896432E+00
   .62708015E+00   .62519234E+00   .62330228E+00   .62141145E+00   .61952130E+00
   .61763336E+00   .61574912E+00   .61387013E+00   .61199787E+00   .61013387E+00
   .60827958E+00   .60643646E+00   .60460591E+00   .60278927E+00   .60098787E+00
   .59920293E+00   .59743563E+00   .59568707E+00   .59395827E+00   .59225015E+00
   .59056357E+00   .58889926E+00   .58725787E+00   .58563994E+00   .58404591E+00
   .58247610E+00   .58093072E+00   .57940988E+00   .57791358E+00   .57644169E+00
   .57499398E+00   .57357013E+00   .57216970E+00   .57079216E+00   .56943686E+00
   .56810309E+00   .56679004E+00   .56549682E+00   .56422244E+00   .56296587E+00
   .56172599E+00   .56050164E+00   .55929160E+00   .55809460E+00   .55690933E+00
   .55573447E+00   .55456864E+00   .55341048E+00   .55225862E+00   .55111169E+00
   .54996832E+00   .54882718E+00   .54768695E+00   .54654634E+00   .54540414E+00
   .54425913E+00   .54311020E+00   .54195626E+00   .54079629E+00   .53962937E+00
   .53845462E+00   .53727127E+00   .53607860E+00   .53487601E+00   .53366297E+00
   .53243906E+00   .53120395E+00   .52995740E+00   .52869927E+00   .52742953E+00
   .52614825E+00   .52485557E+00   .52355175E+00   .52223714E+00   .52091216E+00
   .51957733E+00   .51823326E+00   .51688061E+00   .51552013E+00   .51415264E+00
   .51277901E+00   .51140018E+00   .51001712E+00   .50863087E+00   .50724250E+00
   .50585310E+00   .50446380E+00   .50307574E+00   .50169008E+00   .50030796E+00
   .49893055E+00   .49755898E+00   .49619438E+00   .49483783E+00   .49349041E+00
   .49215314E+00   .49082699E+00   .48951290E+00   .48821174E+00   .48692433E+00
   .48565142E+00   .48439370E+00   .48315177E+00   .48192619E+00   .48071740E+00
   .47952579E+00   .47835166E+00   .47719523E+00   .47605662E+00   .47493588E+00
   .47383296E+00   .47274774E+00   .47168002E+00   .47062949E+00   .46959579E+00
   .46857847E+00   .46757702E+00   .46659084E+00   .46561929E+00   .46466165E+00
   .46371716E+00   .46278500E+00   .46186430E+00   .46095418E+00   .46005368E+00
   .45916184E+00   .45827767E+00   .45740016E+00   .45652830E+00   .45566105E+00
   .45479739E+00   .45393631E+00   .45307679E+00   .45221786E+00   .45135856E+00
   .45049795E+00   .44963516E+00   .44876932E+00   .44789965E+00   .44702539E+00
   .44614583E+00   .44526035E+00   .44436837E+00   .44346936E+00   .44256288E+00
   .44164855E+00   .44072605E+00   .43979514E+00   .43885565E+00   .43790749E+00
   .43695063E+00   .43598511E+00   .43501106E+00   .43402866E+00   .43303818E+00
   .43203993E+00   .43103432E+00   .43002177E+00   .42900280E+00   .42797797E+00
   .42694787E+00   .42591316E+00   .42487453E+00   .42383269E+00   .42278841E+00
   .42174247E+00   .42069566E+00   .41964880E+00   .41860272E+00   .41755827E+00
   .41651627E+00   .41547755E+00   .41444296E+00   .41341329E+00   .41238934E+00
   .41137187E+00   .41036163E+00   .40935933E+00   .40836562E+00   .40738114E+00
   .40640646E+00   .40544213E+00   .40448863E+00   .40354639E+00   .40261578E+00
   .40169713E+00   .40079070E+00   .39989670E+00   .39901527E+00   .39814650E+00
   .39729043E+00   .39644701E+00   .39561616E+00   .39479772E+00   .39399149E+00
   .39319719E+00   .39241452E+00   .39164310E+00   .39088252E+00   .39013230E+00
   .38939194E+00   .38866089E+00   .38793858E+00   .38722439E+00   .38651768E+00
   .38581779E+00   .38512403E+00   .38443572E+00   .38375215E+00   .38307259E+00
   .38239633E+00   .38172265E+00   .38105084E+00   .38038020E+00   .37971003E+00
   .37903965E+00   .37836842E+00   .37769571E+00   .37702091E+00   .37634346E+00
   .37566282E+00   .37497851E+00   .37429006E+00   .37359707E+00   .37289917E+00
   .37219605E+00   .37148742E+00   .37077306E+00   .37005281E+00   .36932652E+00
   .36859413E+00   .36785561E+00   .36711097E+00   .36636029E+00   .36560368E+00
   .36484132E+00   .36407341E+00   .36330022E+00   .36252204E+00   .36173922E+00
   .36095213E+00   .36016118E+00   .35936684E+00   .35856956E+00   .35776986E+00
 gradient corrections used for XC
 5
 core charge-density (partial)
   .36160727E+00   .36144915E+00   .36097517E+00   .36018650E+00   .35908507E+00
   .35767357E+00   .35595547E+00   .35393494E+00   .35161691E+00   .34900697E+00
   .34611143E+00   .34293723E+00   .33949196E+00   .33578380E+00   .33182148E+00
   .32761430E+00   .32317203E+00   .31850492E+00   .31362365E+00   .30853926E+00
   .30326317E+00   .29780707E+00   .29218293E+00   .28640296E+00   .28047950E+00
   .27442508E+00   .26825230E+00   .26197380E+00   .25560225E+00   .24915030E+00
   .24263051E+00   .23605536E+00   .22943716E+00   .22278807E+00   .21612003E+00
   .20944472E+00   .20277357E+00   .19611770E+00   .18948789E+00   .18289458E+00
   .17634782E+00   .16985728E+00   .16343219E+00   .15708137E+00   .15081318E+00
   .14463551E+00   .13855581E+00   .13258102E+00   .12671761E+00   .12097158E+00
   .11534840E+00   .10985308E+00   .10449013E+00   .99263577E-01   .94176970E-01
   .89233379E-01   .84435411E-01   .79785216E-01   .75284498E-01   .70934531E-01
   .66736165E-01   .62689845E-01   .58795627E-01   .55053189E-01   .51461854E-01
   .48020602E-01   .44728089E-01   .41582668E-01   .38582404E-01   .35725093E-01
   .33008284E-01   .30429295E-01   .27985233E-01   .25673011E-01   .23489372E-01
   .21430900E-01   .19494043E-01   .17675131E-01   .15970390E-01   .14375963E-01
   .12887921E-01   .11502284E-01   .10215036E-01   .90221346E-02   .79195300E-02
   .69031762E-02   .59690437E-02   .51131317E-02   .43314790E-02   .36201745E-02
   .29753669E-02   .23932735E-02   .18701887E-02   .14024913E-02   .98665101E-03
   .61923504E-03   .29691302E-03   .16461842E-04  -.22523035E-03  -.43116079E-03
  -.60420938E-03  -.74713648E-03  -.86258139E-03  -.95306130E-03  -.10209708E-02
  -.10685818E-02  -.10980441E-02  -.11113862E-02  -.11105168E-02  -.10972259E-02
  -.10731877E-02  -.10399623E-02  -.99899863E-03  -.95163716E-03  -.89911333E-03
  -.84256073E-03  -.78301470E-03  -.72141600E-03  -.65861471E-03  -.59537411E-03
  -.53237474E-03  -.47021849E-03  -.40943272E-03  -.35047442E-03  -.29373437E-03
  -.23954125E-03  -.18816578E-03  -.13982471E-03  -.94684884E-04  -.52867095E-04
  -.14449920E-04   .20526559E-04   .52057154E-04   .80168079E-04   .10491360E-03
   .12637280E-03   .14464651E-03   .15985436E-03   .17213199E-03   .18162843E-03
   .18850361E-03   .19292599E-03   .19507047E-03   .19511630E-03   .19324523E-03
   .18963983E-03   .18448187E-03   .17795096E-03   .17022323E-03   .16147020E-03
   .15185780E-03   .14154545E-03   .13068537E-03   .11942188E-03   .10789094E-03
   .96219692E-04   .84526173E-04   .72919092E-04   .61497702E-04   .50351748E-04
   .39561506E-04   .29197871E-04   .19322531E-04   .99881782E-05   .12387834E-05
  -.68900864E-05  -.14370913E-04  -.21183836E-04  -.27316235E-04  -.32762285E-04
  -.37522494E-04  -.41603233E-04  -.45016243E-04  -.47778150E-04  -.49909971E-04
  -.51436627E-04  -.52386452E-04  -.52790723E-04  -.52683194E-04  -.52099647E-04
  -.51077452E-04  -.49655159E-04  -.47872097E-04  -.45767999E-04  -.43382654E-04
  -.40755575E-04  -.37925699E-04  -.34931105E-04  -.31808765E-04  -.28594311E-04
  -.25321838E-04  -.22023726E-04  -.18730488E-04  -.15470641E-04  -.12270608E-04
  -.91546303E-05  -.61447155E-05  -.32605971E-05  -.51971869E-06   .20627646E-05
   .44739663E-05   .67032323E-05   .87420899E-05   .10584182E-04   .12225192E-04
   .13662750E-04   .14896339E-04   .15927185E-04   .16758146E-04   .17393587E-04
   .17839258E-04   .18102167E-04   .18190448E-04   .18113227E-04   .17880494E-04
   .17502974E-04   .16991989E-04   .16359344E-04   .15617192E-04   .14777926E-04
   .13854058E-04   .12858115E-04   .11802534E-04   .10699568E-04   .95611970E-05
   .83990441E-05   .72243031E-05   .60476699E-05   .48792836E-05   .37286739E-05
   .26047170E-05   .15155988E-05   .46878485E-06  -.52900118E-06  -.14717934E-05
  -.23543918E-05  -.31723647E-05  -.39220442E-05  -.46005168E-05  -.52056076E-05
  -.57358604E-05  -.61905125E-05  -.65694658E-05  -.68732538E-05  -.71030055E-05
  -.72604067E-05  -.73476579E-05  -.73674317E-05  -.73228274E-05  -.72173248E-05
  -.70547379E-05  -.68391673E-05  -.65749536E-05  -.62666302E-05  -.59188778E-05
  -.55364795E-05  -.51242773E-05  -.46871300E-05  -.42298735E-05  -.37572828E-05
  -.32740362E-05  -.27846824E-05  -.22936097E-05  -.18050180E-05  -.13228939E-05
  -.85098837E-06  -.39279711E-06   .48455608E-07   .46983069E-06   .86868492E-06
   .12426789E-05   .15897820E-05   .19082752E-05   .21967506E-05   .24541092E-05
   .26795557E-05   .28725920E-05   .30330073E-05   .31608680E-05   .32565046E-05
   .33204975E-05   .33536618E-05   .33570300E-05   .33318352E-05   .32794915E-05
   .32015757E-05   .30998075E-05   .29760292E-05   .28321862E-05   .26703066E-05
   .24924816E-05   .23008462E-05   .20975597E-05   .18847880E-05   .16646851E-05
   .14393771E-05   .12109456E-05   .98141311E-06   .75272922E-06   .52675769E-06
   .30526508E-06   .89910483E-07  -.11776354E-06  -.31633863E-06  -.50452711E-06
  -.68117706E-06  -.84527625E-06  -.99595469E-06  -.11324861E-05  -.12542878E-05
  -.13609203E-05  -.14520847E-05  -.15276198E-05  -.15874983E-05  -.16318214E-05
  -.16608135E-05  -.16748150E-05  -.16742760E-05  -.16597477E-05  -.16318746E-05
  -.15913856E-05  -.15390850E-05  -.14758433E-05  -.14025873E-05  -.13202912E-05
  -.12299664E-05  -.11326525E-05  -.10294075E-05  -.92129882E-06  -.80939438E-06
  -.69475396E-06  -.57842102E-06  -.46141492E-06  -.34472359E-06  -.22929675E-06
  -.11603969E-06  -.58075885E-08   .10059955E-06   .20244134E-06   .29904081E-06
   .38978759E-06   .47414043E-06   .55162911E-06   .62185570E-06   .68449519E-06
   .73929558E-06   .78607729E-06   .82473211E-06   .85522160E-06   .87757491E-06
   .89188630E-06   .89831205E-06   .89706715E-06   .88842148E-06   .87269586E-06
   .85025766E-06   .82151633E-06   .78691864E-06   .74694387E-06   .70209886E-06
   .65291302E-06   .59993330E-06   .54371927E-06   .48483818E-06   .42386015E-06
   .36135351E-06   .29788031E-06   .23399201E-06   .17022542E-06   .10709885E-06
   .45108579E-07  -.15274411E-07  -.73607393E-07  -.12947852E-06  -.18250916E-06
  -.23235579E-06  -.27871172E-06  -.32130829E-06  -.35991585E-06  -.39434433E-06
  -.42444354E-06  -.45010308E-06  -.47125198E-06  -.48785802E-06  -.49992677E-06
  -.50750037E-06  -.51065602E-06  -.50950430E-06  -.50418723E-06  -.49487617E-06
  -.48176949E-06  -.46509020E-06  -.44508340E-06  -.42201359E-06  -.39616202E-06
  -.36782385E-06  -.33730544E-06  -.30492149E-06  -.27099231E-06  -.23584105E-06
  -.19979104E-06  -.16316320E-06  -.12627353E-06  -.89430713E-07  -.52933899E-07
  -.17070553E-07   .17885485E-07   .51675788E-07   .84058966E-07   .11481209E-06
   .14373193E-06   .17063604E-06   .19536354E-06   .21777587E-06   .23775716E-06
   .25521455E-06   .27007828E-06   .28230151E-06   .29186012E-06   .29875220E-06
   .30299742E-06   .30463630E-06   .30372924E-06   .30035550E-06   .29461203E-06
   .28661216E-06   .27648427E-06   .26437031E-06   .25042428E-06   .23481069E-06
   .21770289E-06   .19928150E-06   .17973270E-06   .15924664E-06   .13801576E-06
   .11623320E-06   .94091246E-07   .71779810E-07   .49484959E-07   .27387543E-07
   .56618860E-08  -.15525433E-07  -.36016700E-07  -.55664092E-07  -.74330592E-07
  -.91890790E-07  -.10823158E-06  -.12325273E-06  -.13686734E-06  -.14900218E-06
  -.15959791E-06  -.16860920E-06  -.17600468E-06  -.18176686E-06  -.18589189E-06
  -.18838923E-06  -.18928121E-06  -.18860253E-06  -.18639964E-06  -.18273008E-06
  -.17766172E-06  -.17127193E-06  -.16364674E-06  -.15487991E-06  -.14507199E-06
  -.13432932E-06  -.12276305E-06  -.11048811E-06  -.97622188E-07  -.84284754E-07
  -.70596010E-07  -.56675938E-07  -.42643333E-07  -.28614889E-07  -.14704311E-07
  -.10214852E-08   .12328306E-07   .25245113E-07   .37634981E-07   .49410554E-07
   .60491612E-07   .70805528E-07   .80287668E-07   .88881701E-07   .96539852E-07
   .10322307E-06   .10890111E-06   .11355259E-06   .11716492E-06   .11973418E-06
   .12126496E-06   .12177010E-06   .12127040E-06   .11979424E-06   .11737717E-06
   .11406148E-06   .10989566E-06   .10493389E-06   .99235455E-07   .92864140E-07
   .85887630E-07   .78376864E-07   .70405391E-07   .62048715E-07   .53383650E-07
   .44487669E-07   .35438270E-07   .26312355E-07   .17185628E-07   .81320160E-08
  -.77687835E-09  -.94722979E-08  -.17888814E-07  -.25964771E-07  -.33642694E-07
  -.40869651E-07  -.47597568E-07  -.53783504E-07  -.59389877E-07  -.64384635E-07
  -.68741393E-07  -.72439505E-07  -.75464103E-07  -.77806083E-07  -.79462041E-07
  -.80434177E-07  -.80730142E-07  -.80362859E-07  -.79350293E-07  -.77715200E-07
  -.75484829E-07  -.72690607E-07  -.69367792E-07  -.65555102E-07  -.61294332E-07
  -.56629945E-07  -.51608660E-07  -.46279024E-07  -.40690986E-07  -.34895465E-07
  -.28943919E-07  -.22887922E-07  -.16778750E-07  -.10666975E-07  -.46020744E-08
   .13679355E-08   .71968575E-08   .12840641E-07   .18257687E-07   .23409129E-07
   .28259086E-07   .32774878E-07   .36927227E-07   .40690411E-07   .44042395E-07
   .46964929E-07   .49443610E-07   .51467915E-07   .53031204E-07   .54130686E-07
   .54767361E-07   .54945933E-07   .54674686E-07   .53965352E-07   .52832933E-07
   .51295518E-07   .49374072E-07   .47092205E-07   .44475927E-07   .41553393E-07
   .38354628E-07   .34911250E-07   .31256181E-07   .27423358E-07   .23447442E-07
   .19363519E-07   .15206818E-07   .11012420E-07   .68149821E-08   .26484709E-08
  -.14540981E-08  -.54609038E-08  -.93415499E-08  -.13067279E-07  -.16611168E-07
  -.19948309E-07  -.23055964E-07  -.25913705E-07  -.28503528E-07  -.30809951E-07
  -.32820084E-07  -.34523682E-07  -.35913168E-07  -.36983648E-07  -.37732890E-07
  -.38161288E-07  -.38271810E-07  -.38069920E-07  -.37563482E-07  -.36762654E-07
  -.35679758E-07  -.34329135E-07  -.32726998E-07  -.30891257E-07  -.28841345E-07
  -.26598034E-07  -.24183239E-07  -.21619822E-07  -.18931389E-07  -.16142087E-07
  -.13276402E-07  -.10358952E-07  -.74142902E-08  -.44667089E-08  -.15400509E-08
   .13424737E-08   .41584603E-08   .68864740E-08   .95062020E-08   .11998595E-07
   .14345994E-07   .16532247E-07   .18542808E-07   .20364822E-07   .21987195E-07
   .23400652E-07   .24597774E-07   .25573021E-07   .26322743E-07   .26845172E-07
   .27140400E-07   .27210344E-07   .27058693E-07   .26690850E-07   .26113851E-07
   .25336283E-07   .24368180E-07   .23220922E-07   .21907112E-07   .20440458E-07
   .18835639E-07   .17108171E-07   .15274264E-07   .13350684E-07   .11354605E-07
   .93034656E-08   .72148236E-08   .51062130E-08   .29950048E-08   .89827031E-09
  -.11673494E-08  -.31857695E-08  -.51415793E-08  -.70201540E-08  -.88077566E-08
  -.10491632E-07  -.12060092E-07  -.13502588E-07  -.14809774E-07  -.15973564E-07
  -.16987169E-07  -.17845128E-07  -.18543331E-07  -.19079027E-07  -.19450818E-07
  -.19658649E-07  -.19703782E-07  -.19588766E-07  -.19317389E-07  -.18894628E-07
  -.18326588E-07  -.17620432E-07  -.16784303E-07  -.15827247E-07  -.14759119E-07
  -.13590491E-07  -.12332557E-07  -.10997029E-07  -.95960363E-08  -.81420211E-08
  -.66476317E-08  -.51256190E-08  -.35887318E-08  -.20496154E-08  -.52071155E-09
   .98583709E-09   .24582794E-08   .38853427E-08   .52563151E-08   .65611210E-08
   .77903913E-08   .89355255E-08   .99887480E-08   .10943156E-07   .11792758E-07
   .12532509E-07   .13158333E-07   .13667138E-07   .14056826E-07   .14326292E-07
   .14475414E-07   .14505039E-07   .14416962E-07   .14213889E-07   .13899407E-07
   .13477935E-07   .12954676E-07   .12335565E-07   .11627205E-07   .10836804E-07
   .99721091E-08   .90413318E-08   .80530777E-08   .70162695E-08   .59400702E-08
   .48338060E-08   .37068887E-08   .25687391E-08   .14287109E-08   .29601783E-09
  -.82033883E-09  -.19116381E-08  -.29695048E-08  -.39859707E-08  -.49535320E-08
  -.58652010E-08  -.67145544E-08  -.74957749E-08  -.82036880E-08  -.88337927E-08
  -.93822867E-08  -.98460855E-08  -.10222835E-07  -.10510919E-07  -.10709458E-07
  -.10818309E-07  -.10838048E-07  -.10769961E-07  -.10616016E-07  -.10378839E-07
  -.10061682E-07  -.96683870E-08  -.92033461E-08  -.86714561E-08  -.80780719E-08
  -.74289567E-08  -.67302284E-08  -.59883058E-08  -.52098516E-08  -.44017157E-08
  -.35708769E-08  -.27243854E-08  -.18693049E-08  -.10126559E-08  -.16136004E-09
   .67781354E-09   .14983002E-08   .22937889E-08   .30582692E-08   .37860741E-08
   .44719203E-08   .51109446E-08   .56987359E-08   .62313637E-08   .67054022E-08
   .71179492E-08   .74666419E-08   .77496668E-08   .79657663E-08   .81142394E-08
   .81949391E-08   .82082649E-08   .81551511E-08   .80370511E-08   .78559176E-08
   .76141792E-08   .73147137E-08   .69608184E-08   .65561766E-08   .61048228E-08
   .56111046E-08   .50796432E-08   .45152922E-08   .39230951E-08   .33082423E-08
   .26760267E-08   .20318003E-08   .13809303E-08   .72875558E-09   .80544737E-10
  -.55854524E-09  -.11835085E-08  -.17895283E-08  -.23720125E-08  -.29266272E-08
  -.34493273E-08  -.39363847E-08  -.43844136E-08  -.47903921E-08  -.51516812E-08
  -.54660402E-08  -.57316384E-08  -.59470642E-08  -.61113297E-08  -.62238723E-08
  -.62845533E-08  -.62936523E-08  -.62518588E-08  -.61602609E-08  -.60203304E-08
  -.58339052E-08  -.56031698E-08  -.53306319E-08  -.50190983E-08  -.46716473E-08
  -.42916007E-08  -.38824931E-08  -.34480408E-08  -.29921092E-08  -.25186800E-08
  -.20318169E-08  -.15356326E-08  -.10342546E-08  -.53179226E-09  -.32304088E-10
   .46023421E-09   .94196023E-09   .14091542E-08   .18582667E-08   .22859447E-08
   .26890555E-08   .30647088E-08   .34102760E-08   .37234081E-08   .40020500E-08
   .42444528E-08   .44491837E-08   .46151328E-08   .47415172E-08   .48278830E-08
   .48741040E-08   .48803779E-08   .48472204E-08   .47754566E-08   .46662094E-08
   .45208873E-08   .43411681E-08   .41289822E-08   .38864934E-08   .36160783E-08
   .33203043E-08   .30019063E-08   .26637624E-08   .23088690E-08   .19403150E-08
   .15612556E-08   .11748865E-08   .78441743E-09   .39304628E-09   .39337266E-11
  -.37982163E-09  -.75520720E-09  -.11193194E-08  -.14693852E-08  -.18027830E-08
  -.21170609E-08  -.24099546E-08  -.26794024E-08  -.29235595E-08  -.31408093E-08
  -.33297735E-08  -.34893197E-08  -.36185672E-08  -.37168906E-08  -.37839214E-08
  -.38195472E-08  -.38239092E-08  -.37973977E-08  -.37406457E-08  -.36545200E-08
  -.35401117E-08  -.33987241E-08  -.32318592E-08  -.30412036E-08  -.28286116E-08
  -.25960888E-08  -.23457738E-08  -.20799191E-08  -.18008717E-08  -.15110527E-08
  -.12129375E-08  -.90903482E-09  -.60186602E-09  -.29394511E-09   .12241506E-10
   .31425455E-09   .60972079E-09   .89635116E-09   .11719580E-08   .14344712E-08
   .16819532E-08   .19126129E-08   .21248179E-08   .23171055E-08   .24881924E-08
   .26369823E-08   .27625722E-08   .28642575E-08   .29415346E-08   .29941024E-08
   .30218624E-08   .30249160E-08   .30035622E-08   .29582915E-08   .28897803E-08
   .27988826E-08   .26866209E-08   .25541759E-08   .24028751E-08   .22341798E-08
   .20496722E-08   .18510408E-08   .16400656E-08   .14186026E-08   .11885680E-08
   .95192214E-09   .71065302E-09   .46676017E-09   .22223842E-09  -.20938003E-10
  -.26083103E-09  -.49555383E-09  -.72328527E-09  -.94228364E-09  -.11508996E-08
  -.13475884E-08  -.15309204E-08  -.16995917E-08  -.18524327E-08  -.19884154E-08
  -.21066607E-08  -.22064426E-08  -.22871928E-08  -.23485028E-08  -.23901254E-08
  -.24119745E-08  -.24141239E-08  -.23968044E-08  -.23604004E-08  -.23054445E-08
  -.22326115E-08  -.21427114E-08  -.20366809E-08  -.19155743E-08  -.17805540E-08
  -.16328793E-08  -.14738955E-08  -.13050217E-08  -.11277388E-08  -.94357686E-09
  -.75410188E-09  -.56090319E-09  -.36558021E-09  -.16972961E-09   .25067538E-10
   .21725815E-09   .40532931E-09   .58781984E-09   .76333139E-09   .93053888E-09
   .10882002E-08   .12351651E-08   .13703835E-08   .14929123E-08   .16019218E-08
   .16967013E-08   .17766626E-08   .18413439E-08   .18904117E-08   .19236618E-08
   .19410193E-08   .19425382E-08   .19283986E-08   .18989042E-08   .18544784E-08
   .17956590E-08   .17230933E-08   .16375306E-08   .15398157E-08   .14308808E-08
   .13117368E-08   .11834645E-08   .10472046E-08   .90414862E-09   .75552807E-09
   .60260440E-09   .44665846E-09   .28898003E-09   .13085732E-09  -.26433266E-10
 atomic pseudo charge-density
   .13000000E+02   .12989006E+02   .12956188E+02   .12902024E+02   .12827291E+02
   .12733031E+02   .12620508E+02   .12491160E+02   .12346550E+02   .12188311E+02
   .12018102E+02   .11837560E+02   .11648264E+02   .11451710E+02   .11249281E+02
   .11042240E+02   .10831719E+02   .10618716E+02   .10404103E+02   .10188624E+02
   .99729128E+01   .97574966E+01   .95428118E+01   .93292141E+01   .91169896E+01
   .89063661E+01   .86975226E+01   .84905983E+01   .82857002E+01   .80829098E+01
   .78822892E+01   .76838854E+01   .74877348E+01   .72938656E+01   .71023013E+01
   .69130622E+01   .67261667E+01   .65416331E+01   .63594798E+01   .61797263E+01
   .60023930E+01   .58275020E+01   .56550765E+01   .54851412E+01   .53177219E+01
   .51528452E+01   .49905386E+01   .48308297E+01   .46737466E+01   .45193167E+01
   .43675672E+01   .42185246E+01   .40722141E+01   .39286599E+01   .37878844E+01
   .36499084E+01   .35147509E+01   .33824286E+01   .32529561E+01   .31263458E+01
   .30026075E+01   .28817484E+01   .27637735E+01   .26486850E+01   .25364823E+01
   .24271626E+01   .23207202E+01   .22171469E+01   .21164318E+01   .20185618E+01
   .19235211E+01   .18312915E+01   .17418525E+01   .16551815E+01   .15712534E+01
   .14900411E+01   .14115157E+01   .13356461E+01   .12623994E+01   .11917409E+01
   .11236344E+01   .10580419E+01   .99492396E+00   .93423986E+00   .87594745E+00
   .82000340E+00   .76636325E+00   .71498150E+00   .66581168E+00   .61880649E+00
   .57391782E+00   .53109688E+00   .49029426E+00   .45146003E+00   .41454380E+00
   .37949482E+00   .34626202E+00   .31479414E+00   .28503974E+00   .25694734E+00
   .23046541E+00   .20554252E+00   .18212732E+00   .16016870E+00   .13961576E+00
   .12041793E+00   .10252499E+00   .85887163E-01   .70455134E-01   .56180121E-01
   .43013920E-01   .30908950E-01   .19818298E-01   .96957686E-02   .49591665E-03
  -.78259087E-02  -.15313529E-01  -.22009901E-01  -.27957086E-01  -.33196217E-01
  -.37767474E-01  -.41710056E-01  -.45062156E-01  -.47860942E-01  -.50142539E-01
  -.51942005E-01  -.53293326E-01  -.54229394E-01  -.54782001E-01  -.54981831E-01
  -.54858449E-01  -.54440304E-01  -.53754717E-01  -.52827889E-01  -.51684899E-01
  -.50349705E-01  -.48845156E-01  -.47192992E-01  -.45413858E-01  -.43527313E-01
  -.41551842E-01  -.39504870E-01  -.37402780E-01  -.35260927E-01  -.33093659E-01
  -.30914334E-01  -.28735346E-01  -.26568144E-01  -.24423255E-01  -.22310313E-01
  -.20238079E-01  -.18214474E-01  -.16246600E-01  -.14340773E-01  -.12502552E-01
  -.10736765E-01  -.90475412E-02  -.74383425E-02  -.59119924E-02  -.44707080E-02
  -.31161310E-02  -.18493593E-02  -.67097784E-03   .41890951E-03   .14206493E-02
   .23350074E-02   .31631384E-02   .39065553E-02   .45671000E-02   .51469135E-02
   .56484075E-02   .60742362E-02   .64272688E-02   .67105627E-02   .69273379E-02
   .70809515E-02   .71748735E-02   .72126638E-02   .71979495E-02   .71344038E-02
   .70257253E-02   .68756187E-02   .66877768E-02   .64658628E-02   .62134945E-02
   .59342290E-02   .56315489E-02   .53088491E-02   .49694255E-02   .46164638E-02
   .42530301E-02   .38820621E-02   .35063620E-02   .31285894E-02   .27512563E-02
   .23767224E-02   .20071913E-02   .16447081E-02   .12911576E-02   .94826320E-03
   .61758708E-03   .30053064E-03  -.16640078E-05  -.28791187E-03  -.55728238E-03
  -.80899594E-03  -.10424200E-02  -.12570647E-02  -.14525775E-02  -.16287382E-02
  -.17854533E-02  -.19227491E-02  -.20407660E-02  -.21397515E-02  -.22200533E-02
  -.22821124E-02  -.23264555E-02  -.23536881E-02  -.23644869E-02  -.23595926E-02
  -.23398024E-02  -.23059629E-02  -.22589625E-02  -.21997249E-02  -.21292018E-02
  -.20483662E-02  -.19582058E-02  -.18597170E-02  -.17538985E-02  -.16417456E-02
  -.15242447E-02  -.14023681E-02  -.12770692E-02  -.11492776E-02  -.10198954E-02
  -.88979287E-03  -.75980496E-03  -.63072829E-03  -.50331821E-03  -.37828630E-03
  -.25629823E-03  -.13797202E-03  -.23876527E-04   .85469621E-04   .18959885E-03
   .28809508E-03   .38059393E-03   .46678257E-03   .54639930E-03   .61923289E-03
   .68512165E-03   .74395228E-03   .79565844E-03   .84021921E-03   .87765726E-03
   .90803693E-03   .93146212E-03   .94807406E-03   .95804892E-03   .96159538E-03
   .95895208E-03   .95038500E-03   .93618482E-03   .91666422E-03   .89215518E-03
   .86300627E-03   .82957994E-03   .79224988E-03   .75139836E-03   .70741370E-03
   .66068774E-03   .61161341E-03   .56058242E-03   .50798298E-03   .45419769E-03
   .39960152E-03   .34455990E-03   .28942696E-03   .23454386E-03   .18023733E-03
   .12681829E-03   .74580605E-04   .23800020E-04  -.25266763E-04  -.72382891E-04
  -.11733200E-03  -.15991874E-03  -.19996910E-03  -.23733070E-03  -.27187282E-03
  -.30348645E-03  -.33208406E-03  -.35759939E-03  -.37998701E-03  -.39922192E-03
  -.41529884E-03  -.42823165E-03  -.43805253E-03  -.44481118E-03  -.44857386E-03
  -.44942245E-03  -.44745340E-03  -.44277663E-03  -.43551443E-03  -.42580034E-03
  -.41377789E-03  -.39959951E-03  -.38342523E-03  -.36542155E-03  -.34576019E-03
  -.32461695E-03  -.30217048E-03  -.27860117E-03  -.25409003E-03  -.22881759E-03
  -.20296288E-03  -.17670238E-03  -.15020914E-03  -.12365181E-03  -.97193850E-04
  -.70992706E-04  -.45199103E-04  -.19956376E-04   .46001227E-05   .28343561E-04
   .51156091E-04   .72929242E-04   .93564261E-04   .11297237E-03   .13107496E-03
   .14780374E-03   .16310078E-03   .17691856E-03   .18921986E-03   .19997770E-03
   .20917514E-03   .21680508E-03   .22286999E-03   .22738157E-03   .23036043E-03
   .23183566E-03   .23184440E-03   .23043139E-03   .22764846E-03   .22355399E-03
   .21821240E-03   .21169356E-03   .20407222E-03   .19542743E-03   .18584195E-03
   .17540164E-03   .16419487E-03   .15231192E-03   .13984440E-03   .12688469E-03
   .11352534E-03   .99858548E-04   .85975636E-04   .71966523E-04   .57919253E-04
   .43919529E-04   .30050286E-04   .16391280E-04   .30187209E-05  -.99950761E-05
  -.22581996E-04  -.34678405E-04  -.46225389E-04  -.57168968E-04  -.67460266E-04
  -.77055656E-04  -.85916861E-04  -.94011032E-04  -.10131078E-03  -.10779419E-03
  -.11344480E-03  -.11825151E-03  -.12220856E-03  -.12531537E-03  -.12757639E-03
  -.12900098E-03  -.12960321E-03  -.12940159E-03  -.12841894E-03  -.12668206E-03
  -.12422149E-03  -.12107125E-03  -.11726853E-03  -.11285338E-03  -.10786842E-03
  -.10235852E-03  -.96370449E-04  -.89952604E-04  -.83154639E-04  -.76027164E-04
  -.68621420E-04  -.60988964E-04  -.53181362E-04  -.45249885E-04  -.37245217E-04
  -.29217181E-04  -.21214461E-04  -.13284355E-04  -.54725299E-05   .21772002E-05
   .96230857E-05   .16825631E-04   .23747769E-04   .30355017E-04   .36615612E-04
   .42500627E-04   .47984075E-04   .53042983E-04   .57657451E-04   .61810698E-04
   .65489079E-04   .68682088E-04   .71382347E-04   .73585570E-04   .75290513E-04
   .76498912E-04   .77215396E-04   .77447394E-04   .77205026E-04   .76500976E-04
   .75350362E-04   .73770587E-04   .71781183E-04   .69403651E-04   .66661285E-04
   .63578996E-04   .60183130E-04   .56501279E-04   .52562091E-04   .48395078E-04
   .44030427E-04   .39498802E-04   .34831159E-04   .30058555E-04   .25211964E-04
   .20322102E-04   .15419244E-04   .10533067E-04   .56924802E-05   .92547969E-06
  -.37410000E-05  -.82812183E-05  -.12670754E-04  -.16886618E-04  -.20907359E-04
  -.24713154E-04  -.28285892E-04  -.31609239E-04  -.34668697E-04  -.37451652E-04
  -.39947404E-04  -.42147192E-04  -.44044202E-04  -.45633563E-04  -.46912342E-04
  -.47879512E-04  -.48535921E-04  -.48884249E-04  -.48928951E-04  -.48676194E-04
  -.48133787E-04  -.47311098E-04  -.46218966E-04  -.44869610E-04  -.43276525E-04
  -.41454378E-04  -.39418896E-04  -.37186751E-04  -.34775445E-04  -.32203185E-04
  -.29488767E-04  -.26651447E-04  -.23710821E-04  -.20686704E-04  -.17599002E-04
  -.14467601E-04  -.11312242E-04  -.81524107E-05  -.50072281E-05  -.18953419E-05
   .11651729E-05   .41569103E-05   .70632231E-05   .98683069E-05   .12557277E-04
   .15116239E-04   .17532351E-04   .19793880E-04   .21890251E-04   .23812084E-04
   .25551230E-04   .27100794E-04   .28455151E-04   .29609956E-04   .30562145E-04
   .31309928E-04   .31852778E-04   .32191403E-04   .32327727E-04   .32264849E-04
   .32007002E-04   .31559513E-04   .30928741E-04   .30122026E-04   .29147625E-04
   .28014644E-04   .26732970E-04   .25313194E-04   .23766537E-04   .22104772E-04
   .20340138E-04   .18485266E-04   .16553088E-04   .14556760E-04   .12509578E-04
   .10424891E-04   .83160269E-05   .61962095E-05   .40784813E-05   .19756293E-05
  -.99887295E-07  -.21360051E-05  -.41211220E-05  -.60441584E-05  -.78946137E-05
  -.96626188E-05  -.11338984E-04  -.12915241E-04  -.14383682E-04  -.15737390E-04
  -.16970267E-04  -.18077058E-04  -.19053363E-04  -.19895650E-04  -.20601262E-04
  -.21168415E-04  -.21596192E-04  -.21884536E-04  -.22034234E-04  -.22046895E-04
  -.21924927E-04  -.21671508E-04  -.21290555E-04  -.20786683E-04  -.20165167E-04
  -.19431901E-04  -.18593345E-04  -.17656482E-04  -.16628766E-04  -.15518064E-04
  -.14332606E-04  -.13080928E-04  -.11771813E-04  -.10414235E-04  -.90173038E-05
  -.75902029E-05  -.61421368E-05  -.46822732E-05  -.32196892E-05  -.17633174E-05
  -.32189511E-06   .10960850E-05   .24824221E-05   .38292512E-05   .51290850E-05
   .63748524E-05   .75599335E-05   .86781924E-05   .97240048E-05   .10692284E-04
   .11578501E-04   .12378703E-04   .13089528E-04   .13708212E-04   .14232599E-04
   .14661139E-04   .14992892E-04   .15227518E-04   .15365272E-04   .15406991E-04
   .15354080E-04   .15208490E-04   .14972702E-04   .14649699E-04   .14242941E-04
   .13756335E-04   .13194205E-04   .12561256E-04   .11862545E-04   .11103436E-04
   .10289568E-04   .94268169E-05   .85212519E-05   .75790986E-05   .66066977E-05
   .56104651E-05   .45968515E-05   .35723034E-05   .25432239E-05   .15159347E-05
   .49663999E-06  -.50860979E-06  -.14939513E-05  -.24537407E-05  -.33825838E-05
  -.42753647E-05  -.51272715E-05  -.59338207E-05  -.66908779E-05  -.73946778E-05
  -.80418399E-05  -.86293827E-05  -.91547350E-05  -.96157444E-05  -.10010683E-04
  -.10338252E-04  -.10597579E-04  -.10788221E-04  -.10910155E-04  -.10963775E-04
  -.10949880E-04  -.10869664E-04  -.10724700E-04  -.10516929E-04  -.10248636E-04
  -.99224353E-05  -.95412469E-05  -.91082747E-05  -.86269824E-05  -.81010682E-05
  -.75344391E-05  -.69311833E-05  -.62955436E-05  -.56318882E-05  -.49446835E-05
  -.42384650E-05  -.35178090E-05  -.27873046E-05  -.20515260E-05  -.13150052E-05
  -.58220528E-06   .14250486E-06   .85487548E-06   .15507994E-05   .22263344E-05
   .28777242E-05   .35014178E-05   .40940879E-05   .46526465E-05   .51742604E-05
   .56563634E-05   .60966678E-05   .64931735E-05   .68441754E-05   .71482689E-05
   .74043534E-05   .76116344E-05   .77696230E-05   .78781341E-05   .79372829E-05
   .79474792E-05   .79094204E-05   .78240827E-05   .76927111E-05   .75168076E-05
   .72981179E-05   .70386177E-05   .67404970E-05   .64061434E-05   .60381253E-05
   .56391733E-05   .52121617E-05   .47600887E-05   .42860570E-05   .37932533E-05
   .32849283E-05   .27643762E-05   .22349142E-05   .16998626E-05   .11625247E-05
   .62616771E-06   .94003519E-07  -.43082953E-06  -.94528420E-06  -.14464211E-05
  -.19314248E-05  -.23976183E-05  -.28424774E-05  -.32636429E-05  -.36589328E-05
  -.40263520E-05  -.43641019E-05  -.46705879E-05  -.49444258E-05  -.51844474E-05
  -.53897037E-05  -.55594674E-05  -.56932343E-05  -.57907227E-05  -.58518722E-05
  -.58768402E-05  -.58659985E-05  -.58199272E-05  -.57394092E-05  -.56254216E-05
  -.54791278E-05  -.53018675E-05  -.50951465E-05  -.48606250E-05  -.46001060E-05
  -.43155220E-05  -.40089221E-05  -.36824578E-05  -.33383689E-05  -.29789693E-05
  -.26066315E-05  -.22237721E-05  -.18328367E-05  -.14362850E-05  -.10365760E-05
  -.63615303E-06  -.23743006E-06   .15722279E-06   .54549247E-06   .92513606E-06
   .12939931E-05   .16499973E-05   .19911877E-05   .23157184E-05   .26218688E-05
   .29080511E-05   .31728187E-05   .34148728E-05   .36330676E-05   .38264157E-05
   .39940914E-05   .41354335E-05   .42499471E-05   .43373045E-05   .43973444E-05
   .44300713E-05   .44356525E-05   .44144156E-05   .43668443E-05   .42935731E-05
   .41953819E-05   .40731894E-05   .39280457E-05   .37611242E-05   .35737136E-05
   .33672079E-05   .31430975E-05   .29029586E-05   .26484426E-05   .23812661E-05
   .21031987E-05   .18160527E-05   .15216714E-05   .12219175E-05   .91866222E-06
   .61377367E-06   .30910591E-06   .64880085E-08  -.29228651E-06  -.58546995E-06
  -.87137028E-06  -.11483605E-05  -.14148878E-05  -.16694813E-05  -.19107605E-05
  -.21374420E-05  -.23483460E-05  -.25424023E-05  -.27186548E-05  -.28762666E-05
  -.30145227E-05  -.31328334E-05  -.32307358E-05  -.33078955E-05  -.33641064E-05
  -.33992910E-05  -.34134990E-05  -.34069051E-05  -.33798072E-05  -.33326224E-05
  -.32658833E-05  -.31802336E-05  -.30764225E-05  -.29552993E-05  -.28178070E-05
  -.26649753E-05  -.24979136E-05  -.23178034E-05  -.21258901E-05  -.19234754E-05
  -.17119078E-05  -.14925749E-05  -.12668942E-05  -.10363042E-05  -.80225565E-06
  -.56620270E-06  -.32959406E-06  -.93864384E-07   .13957412E-06   .36933993E-06
   .59409018E-06   .81252820E-06   .10234108E-05   .12255552E-05   .14178451E-05
   .15992371E-05   .17687658E-05   .19255486E-05   .20687904E-05   .21977871E-05
   .23119287E-05   .24107022E-05   .24936933E-05   .25605877E-05   .26111720E-05
   .26453339E-05   .26630613E-05   .26644416E-05   .26496598E-05   .26189965E-05
   .25728247E-05   .25116067E-05   .24358904E-05   .23463047E-05   .22435553E-05
   .21284186E-05   .20017372E-05   .18644135E-05   .17174037E-05   .15617112E-05
   .13983805E-05   .12284897E-05   .10531442E-05   .87346961E-06   .69060431E-06
   .50569288E-06   .31987893E-06   .13429822E-06  -.49928122E-07  -.23170017E-06
  -.40994563E-06  -.58362597E-06  -.75174232E-06  -.91334105E-06  -.10675190E-05
  -.12134284E-05  -.13502812E-05  -.14773534E-05  -.15939885E-05  -.16996006E-05
  -.17936775E-05  -.18757825E-05  -.19455565E-05  -.20027191E-05  -.20470696E-05
  -.20784870E-05  -.20969300E-05  -.21024364E-05  -.20951219E-05  -.20751784E-05
  -.20428720E-05  -.19985408E-05  -.19425917E-05  -.18754974E-05  -.17977924E-05
  -.17100696E-05  -.16129758E-05  -.15072069E-05  -.13935036E-05  -.12726460E-05
  -.11454487E-05  -.10127553E-05  -.87543319E-06  -.73436760E-06  -.59045648E-06
  -.44460467E-06  -.29771841E-06  -.15069982E-06  -.44414873E-08   .14017882E-06
   .28230333E-06   .42109919E-06   .55576324E-06   .68552655E-06   .80965868E-06
   .92747161E-06   .10383235E-05   .11416219E-05   .12368270E-05   .13234541E-05
   .14010759E-05   .14693245E-05   .15278929E-05   .15765363E-05   .16150727E-05
   .16433831E-05   .16614121E-05   .16691668E-05   .16667164E-05   .16541913E-05
   .16317809E-05   .15997325E-05   .15583490E-05   .15079859E-05   .14490492E-05
   .13819921E-05   .13073117E-05   .12255456E-05   .11372681E-05   .10430865E-05
   .94363654E-06   .83957904E-06   .73159499E-06   .62038147E-06   .50664722E-06
   .39110824E-06   .27448336E-06   .15748990E-06   .40839329E-07  -.74766916E-07
  -.18864160E-06  -.30011564E-06  -.40854195E-06  -.51329912E-06  -.61379483E-06
  -.70946910E-06  -.79979737E-06  -.88429315E-06  -.96251065E-06  -.10340469E-05
  -.10985438E-05  -.11556896E-05  -.12052204E-05  -.12469214E-05  -.12806270E-05
  -.13062220E-05  -.13236413E-05  -.13328696E-05  -.13339413E-05  -.13269397E-05
  -.13119955E-05  -.12892859E-05  -.12590331E-05  -.12215020E-05  -.11769985E-05
  -.11258671E-05  -.10684883E-05  -.10052761E-05  -.93667492E-06  -.86315681E-06
  -.78521814E-06  -.70337643E-06  -.61816700E-06  -.53013956E-06  -.43985473E-06
  -.34788060E-06  -.25478922E-06  -.16115315E-06  -.67541965E-07   .25481041E-07
   .11736222E-06   .20756075E-06   .29555177E-06   .38082928E-06   .46290905E-06
   .54133121E-06   .61566280E-06   .68550003E-06   .75047038E-06   .81023453E-06
   .86448802E-06   .91296267E-06   .95542785E-06   .99169140E-06   .10216004E-05
   .10450417E-05   .10619422E-05   .10722686E-05   .10760277E-05   .10732652E-05
   .10640658E-05   .10485518E-05   .10268820E-05   .99925050E-06   .96588515E-06
   .92704576E-06   .88302223E-06   .83413254E-06   .78072051E-06   .72315349E-06
 16.2516435017787408 T
 Non local Part
 1 2 1.48525128669019613
 -17.6300663915062650 -1.60397938435419896 -1.60397938435419896 9.69670280881459945
 Reciprocal Space Part
   .00000000E+00   .33209607E+00   .66185581E+00   .98696669E+00   .13051635E+01
   .16142513E+01   .19121273E+01   .21968020E+01   .24664184E+01   .27192700E+01
   .29538165E+01   .31686980E+01   .33627466E+01   .35349953E+01   .36846857E+01
   .38112717E+01   .39144221E+01   .39940193E+01   .40501567E+01   .40831332E+01
   .40934454E+01   .40817780E+01   .40489915E+01   .39961091E+01   .39243011E+01
   .38348689E+01   .37292268E+01   .36088839E+01   .34754248E+01   .33304905E+01
   .31757587E+01   .30129244E+01   .28436812E+01   .26697034E+01   .24926280E+01
   .23140389E+01   .21354520E+01   .19583014E+01   .17839273E+01   .16135660E+01
   .14483406E+01   .12892551E+01   .11371882E+01   .99289096E+00   .85698478E+00
   .72996173E+00   .61218645E+00   .50389949E+00   .40522215E+00   .31616258E+00
   .23662303E+00   .16640808E+00   .10523377E+00   .52737216E-01   .84869153E-02
  -.28006812E-01  -.57281149E-01  -.79910161E-01  -.96494348E-01  -.10765052E+00
  -.11400213E+00  -.11617017E+00  -.11476477E+00  -.11037750E+00  -.10357463E+00
  -.94891083E-01  -.84825527E-01  -.73836246E-01  -.62338036E-01  -.50700007E-01
  -.39244298E-01  -.28245644E-01  -.17931762E-01  -.84844729E-02  -.41504038E-04
   .73011219E-02   .13486187E-01   .18491959E-01   .22328543E-01   .25033994E-01
   .26670278E-01   .27319165E-01   .27078139E-01   .26056397E-01   .24371000E-01
   .22143253E-01   .19495340E-01   .16547287E-01   .13414255E-01   .10204221E-01
   .70160376E-02   .39378868E-02   .10461314E-02  -.15954523E-02  -.39360736E-02
  -.59379816E-02  -.75762027E-02  -.88379934E-02  -.97220462E-02  -.10237486E-01
 Real Space Part
   .00000000E+00   .36746783E+00   .73362352E+00   .10971650E+01   .14568100E+01
   .18113052E+01   .21594342E+01   .25000247E+01   .28319537E+01   .31541520E+01
   .34656067E+01   .37653619E+01   .40525188E+01   .43262340E+01   .45857173E+01
   .48302282E+01   .50590729E+01   .52716007E+01   .54672009E+01   .56453009E+01
   .58053650E+01   .59468939E+01   .60694274E+01   .61725467E+01   .62558801E+01
   .63191093E+01   .63619777E+01   .63843000E+01   .63859723E+01   .63669836E+01
   .63274273E+01   .62675113E+01   .61875696E+01   .60880700E+01   .59696224E+01
   .58329831E+01   .56790579E+01   .55089010E+01   .53237120E+01   .51248285E+01
   .49137162E+01   .46919555E+01   .44612247E+01   .42232811E+01   .39799392E+01
   .37330469E+01   .34844612E+01   .32360222E+01   .29895273E+01   .27467060E+01
   .25091958E+01   .22785197E+01   .20560661E+01   .18430715E+01   .16406062E+01
   .14495637E+01   .12706538E+01   .11043988E+01   .95113491E+00   .81101564E+00
   .68401999E+00   .56996307E+00   .46850968E+00   .37919027E+00   .30141869E+00
   .23451118E+00   .17770628E+00   .13018485E+00   .91089931E-01   .59545779E-01
   .34675796E-01   .15618886E-01   .15440014E-02  -.83373917E-02  -.14761046E-01
  -.18401964E-01  -.19868717E-01  -.19699992E-01  -.18363240E-01  -.16255252E-01
  -.13704428E-01  -.10974513E-01  -.82694961E-02  -.57394223E-02  -.34868088E-02
  -.15734138E-02  -.27094921E-04   .11514647E-02   .19823608E-02   .25005627E-02
   .27506224E-02   .27820858E-02   .26456548E-02   .23901175E-02   .20600308E-02
   .16941147E-02   .13242950E-02   .97531541E-03   .66482702E-03   .40386070E-03
 Reciprocal Space Part
   .00000000E+00   .61665494E+00   .12244004E+01   .18144653E+01   .23783526E+01
   .29079710E+01   .33957592E+01   .38348008E+01   .42189297E+01   .45428210E+01
   .48020691E+01   .49932498E+01   .51139662E+01   .51628770E+01   .51397086E+01
   .50452484E+01   .48813215E+01   .46507509E+01   .43573015E+01   .40056096E+01
   .36010991E+01   .31498862E+01   .26586733E+01   .21346364E+01   .15853048E+01
   .10184387E+01   .44190363E+00  -.13645322E+00  -.70892505E+00  -.12680622E+01
  -.18067826E+01  -.23184735E+01  -.27970832E+01  -.32372021E+01  -.36341301E+01
  -.39839315E+01  -.42834754E+01  -.45304615E+01  -.47234319E+01  -.48617682E+01
  -.49456742E+01  -.49761464E+01  -.49549309E+01  -.48844698E+01  -.47678373E+01
  -.46086669E+01  -.44110724E+01  -.41795624E+01  -.39189519E+01  -.36342712E+01
  -.33306751E+01  -.30133530E+01  -.26874421E+01  -.23579445E+01  -.20296509E+01
  -.17070701E+01  -.13943676E+01  -.10953117E+01  -.81322999E+00  -.55097510E+00
  -.31090094E+00  -.94848681E-01   .95857136E-01   .26040292E+00   .39847127E+00
   .51021784E+00   .59624054E+00   .65754221E+00   .69548752E+00   .71175542E+00
   .70828814E+00   .68723799E+00   .65091302E+00   .60172276E+00   .54212501E+00
   .47457481E+00   .40147643E+00   .32513914E+00   .24773762E+00   .17127745E+00
   .97566111E-01   .28189897E-01  -.35503149E-01  -.92414280E-01  -.14169912E+00
  -.18276698E+00  -.21527487E+00  -.23911638E+00  -.25440628E+00  -.26146119E+00
  -.26077697E+00  -.25300372E+00  -.23891882E+00  -.21939889E+00  -.19539137E+00
  -.16788624E+00  -.13788872E+00  -.10639331E+00  -.74359866E-01  -.42692051E-01
 Real Space Part
   .00000000E+00   .34181284E-01   .49086467E-01   .26113747E-01  -.52011727E-01
  -.20062777E+00  -.43258720E+00  -.75778942E+00  -.11828064E+01  -.17106150E+01
  -.23404435E+01  -.30677374E+01  -.38842444E+01  -.47782171E+01  -.57347238E+01
  -.67360600E+01  -.77622451E+01  -.87915893E+01  -.98013122E+01  -.10768194E+02
  -.11669238E+02  -.12482326E+02  -.13186843E+02  -.13764259E+02  -.14198643E+02
  -.14477099E+02  -.14590113E+02  -.14531801E+02  -.14300052E+02  -.13896561E+02
  -.13326760E+02  -.12599645E+02  -.11727510E+02  -.10725597E+02  -.96116728E+01
  -.84055506E+01  -.71285671E+01  -.58030358E+01  -.44516908E+01  -.30971374E+01
  -.17613248E+01  -.46505635E+00   .77245178E+00   .19339521E+01   .30044796E+01
   .39715921E+01   .48255333E+01   .55593188E+01   .61687456E+01   .66523288E+01
   .70111729E+01   .72487825E+01   .73708243E+01   .73848470E+01   .72999725E+01
   .71265670E+01   .68759042E+01   .65598293E+01   .61904345E+01   .57797536E+01
   .53394837E+01   .48807393E+01   .44138431E+01   .39481574E+01   .34919566E+01
   .30523410E+01   .26351913E+01   .22451607E+01   .18857013E+01   .15591213E+01
   .12666668E+01   .10086250E+01   .78444159E+00   .59284861E+00   .43199669E+00
   .29958753E+00   .19300238E+00   .10942273E+00   .45940484E-01  -.34471340E-03
  -.32242496E-01  -.52404021E-01  -.63269626E-01  -.67031551E-01  -.65610872E-01
  -.60647383E-01  -.53500855E-01  -.45261903E-01  -.36770552E-01  -.28640579E-01
  -.21287765E-01  -.14960301E-01  -.97697705E-02  -.57213461E-02  -.27420929E-02
  -.70651201E-03   .54127310E-03   .11690430E-02   .13418488E-02   .12111485E-02
 Non local Part
 2 2 1.48525128669019613
 20.7004186425640029 -6.60683888283817566 -6.60683888283817566 1.97535595865723201
 Reciprocal Space Part
   .00000000E+00   .16063405E-01   .63995291E-01   .14302523E+00   .25188433E+00
   .38882755E+00   .55166451E+00   .73779788E+00   .94426885E+00   .11678087E+01
   .14048953E+01   .16518141E+01   .19047213E+01   .21597094E+01   .24128723E+01
   .26603704E+01   .28984934E+01   .31237197E+01   .33327719E+01   .35226669E+01
   .36907601E+01   .38347826E+01   .39528714E+01   .40435916E+01   .41059504E+01
   .41394032E+01   .41438517E+01   .41196337E+01   .40675058E+01   .39886193E+01
   .38844890E+01   .37569574E+01   .36081530E+01   .34404461E+01   .32564007E+01
   .30587250E+01   .28502206E+01   .26337329E+01   .24121010E+01   .21881112E+01
   .19644521E+01   .17436743E+01   .15281535E+01   .13200590E+01   .11213273E+01
   .93364067E+00   .75841265E+00   .59677802E+00   .44958927E+00   .31741826E+00
   .20056324E+00   .99060589E-01   .12700995E-01  -.58950588E-01  -.11653177E+00
  -.16085699E+00  -.19288987E+00  -.21371436E+00  -.22450531E+00  -.22649916E+00
  -.22096531E+00  -.20917881E+00  -.19239477E+00  -.17182505E+00  -.14861751E+00
  -.12383819E+00  -.98456490E-01  -.73333696E-01  -.49214656E-01  -.26722752E-01
  -.63579765E-02   .11502028E-01   .26598212E-01   .38783916E-01   .48016548E-01
   .54347487E-01   .57910597E-01   .58909723E-01   .57605556E-01   .54302242E-01
   .49334082E-01   .43052665E-01   .35814713E-01   .27970912E-01   .19855925E-01
   .11779780E-01   .40207267E-02  -.31803420E-02  -.96238848E-02  -.15154142E-01
  -.19660053E-01  -.23074761E-01  -.25373827E-01  -.26572312E-01  -.26720896E-01
  -.25901225E-01  -.24220689E-01  -.21806813E-01  -.18801481E-01  -.15355161E-01
 Real Space Part
   .00000000E+00   .11053987E-01   .44016793E-01   .98297216E-01   .17293057E+00
   .26660884E+00   .37772133E+00   .50440428E+00   .64459766E+00   .79610690E+00
   .95666752E+00   .11240102E+01   .12959236E+01   .14703136E+01   .16452559E+01
   .18190401E+01   .19902052E+01   .21575637E+01   .23202147E+01   .24775448E+01
   .26292184E+01   .27751566E+01   .29155069E+01   .30506037E+01   .31809235E+01
   .33070340E+01   .34295421E+01   .35490401E+01   .36660547E+01   .37809997E+01
   .38941339E+01   .40055267E+01   .41150330E+01   .42222767E+01   .43266456E+01
   .44272960E+01   .45231681E+01   .46130110E+01   .46954167E+01   .47688607E+01
   .48317499E+01   .48824733E+01   .49194560E+01   .49412130E+01   .49464018E+01
   .49338706E+01   .49027029E+01   .48522537E+01   .47821791E+01   .46924563E+01
   .45833945E+01   .44556358E+01   .43101467E+01   .41482000E+01   .39713485E+01
   .37813910E+01   .35803316E+01   .33703343E+01   .31536744E+01   .29326874E+01
   .27097178E+01   .24870694E+01   .22669581E+01   .20514684E+01   .18425153E+01
   .16418121E+01   .14508449E+01   .12708539E+01   .11028221E+01   .94747150E+00
   .80526535E+00   .67641759E+00   .56090750E+00   .45849935E+00   .36876603E+00
   .29111563E+00   .22481997E+00   .16904420E+00   .12287627E+00   .85355695E-01
   .55500574E-01   .32332392E-01   .14897970E-01   .22882257E-02  -.63465023E-02
  -.11784678E-01  -.14725301E-01  -.15783009E-01  -.15486306E-01  -.14278579E-01
  -.12521524E-01  -.10500543E-01  -.84316679E-02  -.64695516E-02  -.47160985E-02
  -.32293284E-02  -.20321146E-02  -.11204916E-02  -.47128511E-03  -.48879878E-04
 Reciprocal Space Part
   .00000000E+00   .59079119E-01   .23523942E+00   .52525674E+00   .92378103E+00
   .14233730E+01   .20145575E+01   .26858959E+01   .34240798E+01   .42140487E+01
   .50391342E+01   .58812328E+01   .67210097E+01   .75381349E+01   .83115507E+01
   .90197723E+01   .96412181E+01   .10154567E+02   .10539139E+02   .10775294E+02
   .10844839E+02   .10731443E+02   .10421039E+02   .99022169E+01   .91665892E+01
   .82091163E+01   .70283907E+01   .56268623E+01   .40109984E+01   .21913703E+01
   .18265917E+00  -.19964231E+01  -.43233023E+01  -.67717990E+01  -.93124748E+01
  -.11913063E+02  -.14538976E+02  -.17153887E+02  -.19720368E+02  -.22200576E+02
  -.24556969E+02  -.26753048E+02  -.28754089E+02  -.30527864E+02  -.32045327E+02
  -.33281251E+02  -.34214792E+02  -.34829972E+02  -.35116078E+02  -.35067931E+02
  -.34686064E+02  -.33976761E+02  -.32951982E+02  -.31629155E+02  -.30030857E+02
  -.28184371E+02  -.26121141E+02  -.23876136E+02  -.21487130E+02  -.18993928E+02
  -.16437535E+02  -.13859315E+02  -.11300137E+02  -.87995403E+01  -.63949339E+01
  -.41208553E+01  -.20082991E+01  -.84135993E-01   .16293671E+01   .31149125E+01
   .43604175E+01   .53591341E+01   .61096419E+01   .66157170E+01   .68860801E+01
   .69340337E+01   .67769991E+01   .64359658E+01   .59348702E+01   .52999198E+01
   .45588816E+01   .37403541E+01   .28730411E+01   .19850471E+01   .11032112E+01
   .25249636E+00  -.54455188E+00  -.12682645E+01  -.19022164E+01  -.24334949E+01
  -.28528651E+01  -.31548311E+01  -.33375941E+01  -.34029135E+01  -.33558749E+01
  -.32045786E+01  -.29597559E+01  -.26343301E+01  -.22429329E+01  -.18013945E+01
 Real Space Part
   .00000000E+00   .46529814E-01   .17595903E+00   .35827758E+00   .54501854E+00
   .67151787E+00   .65995063E+00   .42302205E+00  -.13183401E+00  -.10979179E+01
  -.25645705E+01  -.46125117E+01  -.73094004E+01  -.10705796E+02  -.14831689E+02
  -.19693739E+02  -.25273348E+02  -.31525644E+02  -.38379438E+02  -.45738157E+02
  -.53481737E+02  -.61469427E+02  -.69543391E+02  -.77533009E+02  -.85259711E+02
  -.92542189E+02  -.99201805E+02  -.10506800E+03  -.10998351E+03  -.11380928E+03
  -.11642876E+03  -.11775159E+03  -.11771650E+03  -.11629330E+03  -.11348389E+03
  -.10932238E+03  -.10387418E+03  -.97234157E+02  -.89523975E+02  -.80888655E+02
  -.71492498E+02  -.61514510E+02  -.51143502E+02  -.40572992E+02  -.29996111E+02
  -.19600646E+02  -.95643802E+01  -.50869037E-01   .87942349E+01   .16846214E+02
   .24003600E+02   .30189738E+02   .35353564E+02   .39469627E+02   .42537378E+02
   .44579785E+02   .45641351E+02   .45785628E+02   .45092336E+02   .43654188E+02
   .41573551E+02   .38959050E+02   .35922221E+02   .32574326E+02   .29023413E+02
   .25371691E+02   .21713295E+02   .18132472E+02   .14702215E+02   .11483357E+02
   .85241145E+01   .58600608E+01   .35144844E+01   .14990974E+01  -.18497017E+00
  -.15459452E+01  -.26000212E+01  -.33698659E+01  -.38830881E+01  -.41707202E+01
  -.42657696E+01  -.42018802E+01  -.40121408E+01  -.37280661E+01  -.33787670E+01
  -.29903185E+01  -.25853243E+01  -.21826705E+01  -.17974535E+01  -.14410624E+01
  -.11213915E+01  -.84315873E+00  -.60830028E+00  -.41641598E+00  -.26523903E+00
  -.15110655E+00  -.69410538E-01  -.15012122E-01   .17393744E-01   .32972286E-01
 Non local Part
 0 2 1.48525128669019613
 2.98603803161686754 -0.171846979140273304 -0.171846979140273304 0.180446936413195501E-01
 Reciprocal Space Part
   .20430702E+02   .20382969E+02   .20240307E+02   .20004327E+02   .19677682E+02
   .19264031E+02   .18767975E+02   .18194990E+02   .17551339E+02   .16843975E+02
   .16080437E+02   .15268731E+02   .14417216E+02   .13534476E+02   .12629195E+02
   .11710039E+02   .10785528E+02   .98639285E+01   .89531409E+01   .80606021E+01
   .71931979E+01   .63571857E+01   .55581315E+01   .48008599E+01   .40894177E+01
   .34270531E+01   .28162075E+01   .22585222E+01   .17548577E+01   .13053253E+01
   .90933001E+00   .56562328E+00   .27236388E+00   .27186125E-01  -.17272695E+00
  -.33056662E+00  -.44981966E+00  -.53418911E+00  -.58751631E+00  -.61370566E+00
  -.61665330E+00  -.60018108E+00  -.56797664E+00  -.52354062E+00  -.47014144E+00
  -.41077817E+00  -.34815176E+00  -.28464451E+00  -.22230783E+00  -.16285777E+00
  -.10767795E+00  -.57829276E-01  -.14065587E-01   .23145395E-01   .53596882E-01
   .77314423E-01   .94524877E-01   .10562388E+00   .11114272E+00   .11171542E+00
   .10804692E+00   .10088292E+00   .90982093E-01   .79091072E-01   .65922700E-01
   .52137701E-01   .38329997E-01   .25015695E-01   .12625694E-01   .15017587E-02
  -.81041776E-02  -.16027771E-01  -.22187457E-01  -.26577476E-01  -.29259154E-01
  -.30350896E-01  -.30017329E-01  -.28458023E-01  -.25896210E-01  -.22567849E-01
  -.18711387E-01  -.14558482E-01  -.10325909E-01  -.62088227E-02  -.23754734E-02
   .10365652E-02   .39226662E-02   .62119697E-02   .78668546E-02   .88811961E-02
   .92775794E-02   .91036584E-02   .84278650E-02   .73346810E-02   .59196837E-02
   .42845678E-02   .25323331E-02   .76280477E-03  -.93136745E-03  -.24681162E-02
 Real Space Part
   .73032697E+01   .73150975E+01   .73502667E+01   .74078439E+01   .74863027E+01
   .75835676E+01   .76970721E+01   .78238313E+01   .79605252E+01   .81035908E+01
   .82493193E+01   .83939568E+01   .85338037E+01   .86653108E+01   .87851694E+01
   .88903917E+01   .89783800E+01   .90469830E+01   .90945369E+01   .91198914E+01
   .91224193E+01   .91020104E+01   .90590506E+01   .89943858E+01   .89092753E+01
   .88053323E+01   .86844582E+01   .85487697E+01   .84005232E+01   .82420386E+01
   .80756242E+01   .79035068E+01   .77277678E+01   .75502869E+01   .73726969E+01
   .71963483E+01   .70222858E+01   .68512369E+01   .66836125E+01   .65195179E+01
   .63587752E+01   .62009539E+01   .60454098E+01   .58913296E+01   .57377794E+01
   .55837557E+01   .54282368E+01   .52702322E+01   .51088293E+01   .49432352E+01
   .47728125E+01   .45971083E+01   .44158749E+01   .42290834E+01   .40369282E+01
   .38398238E+01   .36383941E+01   .34334545E+01   .32259885E+01   .30171191E+01
   .28080761E+01   .26001617E+01   .23947145E+01   .21930734E+01   .19965430E+01
   .18063609E+01   .16236689E+01   .14494878E+01   .12846962E+01   .11300158E+01
   .98600021E+00   .85303015E+00   .73131316E+00   .62088822E+00   .52163455E+00
   .43328420E+00   .35543763E+00   .28758174E+00   .22910938E+00   .17933991E+00
   .13753981E+00   .10294301E+00   .74769989E-01   .52245565E-01   .34614610E-01
   .21155631E-01   .11191935E-01   .41002903E-02  -.68290022E-03  -.36578249E-02
  -.52597371E-02  -.58594458E-02  -.57655578E-02  -.52281718E-02  -.44437108E-02
  -.35605720E-02  -.26852892E-02  -.18889184E-02  -.12133919E-02  -.67761651E-03
 Reciprocal Space Part
   .17890453E+02   .18119938E+02   .18803518E+02   .19926675E+02   .21465561E+02
   .23387514E+02   .25651763E+02   .28210307E+02   .31008942E+02   .33988423E+02
   .37085725E+02   .40235375E+02   .43370830E+02   .46425865E+02   .49335937E+02
   .52039510E+02   .54479286E+02   .56603341E+02   .58366123E+02   .59729307E+02
   .60662472E+02   .61143610E+02   .61159431E+02   .60705490E+02   .59786112E+02
   .58414134E+02   .56610472E+02   .54403518E+02   .51828398E+02   .48926103E+02
   .45742506E+02   .42327317E+02   .38732972E+02   .35013503E+02   .31223400E+02
   .27416510E+02   .23644980E+02   .19958270E+02   .16402265E+02   .13018498E+02
   .98434895E+01   .69082325E+01   .42378134E+01   .18511807E+01  -.23893996E+00
  -.20259903E+01  -.35093882E+01  -.46942122E+01  -.55907740E+01  -.62140947E+01
  -.65833007E+01  -.67209579E+01  -.66523631E+01  -.64048125E+01  -.60068638E+01
  -.54876142E+01  -.48760070E+01  -.42001854E+01  -.34869058E+01  -.27610225E+01
  -.20450517E+01  -.13588233E+01  -.71922241E+00  -.14002278E+00   .36818854E+00
   .79799994E+00   .11450822E+01   .14080217E+01   .15880883E+01   .16889496E+01
   .17163414E+01   .16777070E+01   .15818176E+01   .14383848E+01   .12576777E+01
   .10501544E+01   .82611743E+00   .59540209E+00   .36710399E+00   .14935113E+00
  -.50875680E-01  -.22787205E+00  -.37728869E+00  -.49616054E+00  -.58288896E+00
  -.63718093E+00  -.65995010E+00  -.65318553E+00  -.61979459E+00  -.56342681E+00
  -.48828584E+00  -.39893632E+00  -.30011251E+00  -.19653485E+00  -.92740051E-01
   .70705126E-02   .99160081E-01   .18036063E+00   .24814983E+00   .30069992E+00
 Real Space Part
   .23260491E+03   .23203898E+03   .23035194E+03   .22757565E+03   .22376233E+03
   .21898311E+03   .21332618E+03   .20689448E+03   .19980299E+03   .19217578E+03
   .18414282E+03   .17583668E+03   .16738925E+03   .15892851E+03   .15057548E+03
   .14244143E+03   .13462539E+03   .12721214E+03   .12027055E+03   .11385247E+03
   .10799208E+03   .10270582E+03   .97992755E+02   .93835433E+02   .90201231E+02
   .87044029E+02   .84306246E+02   .81921125E+02   .79815197E+02   .77910853E+02
   .76128935E+02   .74391274E+02   .72623099E+02   .70755248E+02   .68726123E+02
   .66483343E+02   .63985049E+02   .61200845E+02   .58112350E+02   .54713370E+02
   .51009694E+02   .47018540E+02   .42767672E+02   .38294250E+02   .33643437E+02
   .28866828E+02   .24020754E+02   .19164518E+02   .14358621E+02   .96630283E+01
   .51355279E+01   .83022804E+00  -.32037713E+01  -.69235003E+01  -.10293013E+02
  -.13284038E+02  -.15876381E+02  -.18058078E+02  -.19825317E+02  -.21182132E+02
  -.22139908E+02  -.22716705E+02  -.22936451E+02  -.22828023E+02  -.22424255E+02
  -.21760910E+02  -.20875647E+02  -.19807009E+02  -.18593467E+02  -.17272545E+02
  -.15880031E+02  -.14449314E+02  -.13010832E+02  -.11591657E+02  -.10215200E+02
  -.89010550E+01  -.76649493E+01  -.65188131E+01  -.54709410E+01  -.45262376E+01
  -.36865289E+01  -.29509236E+01  -.23162078E+01  -.17772569E+01  -.13274509E+01
  -.95907788E+00  -.66371601E+00  -.43258364E+00  -.25685019E+00  -.12790305E+00
  -.37567196E-01   .21723213E-01   .56800532E-01   .73684088E-01   .77541670E-01
   .72687262E-01   .62609546E-01   .50025276E-01   .36951528E-01   .24790913E-01
 PAW radial sets
 321 0.957730215335708013
(5E20.12)                                
 augmentation charges (non sperical)
   .667996839350E+00  -.474116426279E+00   .572855954350E+00  -.136522320484E+00  -.199144813032E+00
   .144414786408E-01  -.474116426279E+00   .288640868759E+00  -.354660685374E+00   .797750158182E-01
   .723678139123E-01  -.875913130913E-02   .572855954350E+00  -.354660685374E+00   .575973576789E+00
  -.131052966353E+00  -.117472919688E+00   .136977706865E-01  -.136522320484E+00   .797750158182E-01
  -.131052966353E+00   .293019532496E-01   .198557619941E-01  -.275858559609E-02  -.199144813032E+00
   .723678139123E-01  -.117472919688E+00   .198557619941E-01  -.283158239962E-01  -.345606989027E-02
   .144414786408E-01  -.875913130913E-02   .136977706865E-01  -.275858559609E-02  -.345606989027E-02
   .176050980609E-03
 uccopancies in atom
   .199999999975E+01   .000000000000E+00   .000000000000E+00   .000000000000E+00   .000000000000E+00
   .000000000000E+00   .000000000000E+00   .000000000000E+00   .000000000000E+00   .000000000000E+00
   .000000000000E+00   .000000000000E+00   .000000000000E+00   .000000000000E+00   .120000003180E+01
   .000000000000E+00   .000000000000E+00   .000000000000E+00   .000000000000E+00   .000000000000E+00
   .000000000000E+00   .000000000000E+00   .000000000000E+00   .000000000000E+00   .000000000000E+00
   .000000000000E+00   .000000000000E+00   .000000000000E+00   .100000000429E+01   .000000000000E+00
   .000000000000E+00   .000000000000E+00   .000000000000E+00   .000000000000E+00   .000000000000E+00
   .000000000000E+00
 grid
   .441821740151E-04   .456188680930E-04   .471022798782E-04   .486339285140E-04   .502153825425E-04
   .518482615107E-04   .535342376294E-04   .552750374856E-04   .570724438102E-04   .589282973046E-04
   .608444985248E-04   .628230098284E-04   .648658573838E-04   .669751332454E-04   .691529974960E-04
   .714016804590E-04   .737234849821E-04   .761207887961E-04   .785960469496E-04   .811517943232E-04
   .837906482257E-04   .865153110739E-04   .893285731607E-04   .922333155123E-04   .952325128388E-04
   .983292365803E-04   .101526658052E-03   .104828051694E-03   .108236798421E-03   .111756389088E-03
   .115390428063E-03   .119142636920E-03   .123016858248E-03   .127017059589E-03   .131147337498E-03
   .135411921741E-03   .139815179624E-03   .144361620469E-03   .149055900229E-03   .153902826255E-03
   .158907362225E-03   .164074633219E-03   .169409930975E-03   .174918719304E-03   .180606639687E-03
   .186479517051E-03   .192543365736E-03   .198804395653E-03   .205269018643E-03   .211943855046E-03
   .218835740477E-03   .225951732829E-03   .233299119500E-03   .240885424856E-03   .248718417936E-03
   .256806120411E-03   .265156814794E-03   .273779052926E-03   .282681664732E-03   .291873767264E-03
   .301364774040E-03   .311164404678E-03   .321282694858E-03   .331730006593E-03   .342517038842E-03
   .353654838470E-03   .365154811556E-03   .377028735078E-03   .389288768971E-03   .401947468581E-03
   .415017797523E-03   .428513140955E-03   .442447319290E-03   .456834602342E-03   .471689723947E-03
   .487027897048E-03   .502864829274E-03   .519216739028E-03   .536100372094E-03   .553533018787E-03
   .571532531662E-03   .590117343793E-03   .609306487650E-03   .629119614595E-03   .649577015000E-03
   .670699639031E-03   .692509118101E-03   .715027787023E-03   .738278706881E-03   .762285688649E-03
   .787073317573E-03   .812666978353E-03   .839092881133E-03   .866378088347E-03   .894550542431E-03
   .923639094440E-03   .953673533593E-03   .984684617781E-03   .101670410506E-02   .104976478619E-02
   .108390051820E-02   .111914625905E-02   .115553810346E-02   .119311331987E-02   .123191038858E-02
   .127196904118E-02   .131333030122E-02   .135603652626E-02   .140013145120E-02   .144566023309E-02
   .149266949739E-02   .154120738569E-02   .159132360503E-02   .164306947880E-02   .169649799929E-02
   .175166388198E-02   .180862362156E-02   .186743554977E-02   .192815989516E-02   .199085884478E-02
   .205559660783E-02   .212243948143E-02   .219145591853E-02   .226271659799E-02   .233629449696E-02
   .241226496566E-02   .249070580448E-02   .257169734369E-02   .265532252571E-02   .274166699003E-02
   .283081916092E-02   .292287033800E-02   .301791478972E-02   .311604984991E-02   .321737601744E-02
   .332199705915E-02   .343002011615E-02   .354155581347E-02   .365671837342E-02   .377562573253E-02
   .389839966232E-02   .402516589402E-02   .415605424733E-02   .429119876337E-02   .443073784192E-02
   .457481438320E-02   .472357593418E-02   .487717483967E-02   .503576839840E-02   .519951902401E-02
   .536859441145E-02   .554316770871E-02   .572341769408E-02   .590952895932E-02   .610169209860E-02
   .630010390379E-02   .650496756590E-02   .671649288324E-02   .693489647620E-02   .716040200915E-02
   .739324041947E-02   .763365015403E-02   .788187741342E-02   .813817640402E-02   .840280959841E-02
   .867604800411E-02   .895817144111E-02   .924946882847E-02   .955023848017E-02   .986078841061E-02
   .101814366501E-01   .105125115703E-01   .108543522211E-01   .112073086770E-01   .115717423964E-01
   .119480265912E-01   .123365466092E-01   .127377003290E-01   .131518985671E-01   .135795654985E-01
   .140211390916E-01   .144770715564E-01   .149478298076E-01   .154338959426E-01   .159357677358E-01
   .164539591477E-01   .169890008516E-01   .175414407769E-01   .181118446704E-01   .187007966756E-01
   .193088999307E-01   .199367771866E-01   .205850714446E-01   .212544466145E-01   .219455881950E-01
   .226592039756E-01   .233960247611E-01   .241568051203E-01   .249423241590E-01   .257533863172E-01
   .265908221934E-01   .274554893951E-01   .283482734172E-01   .292700885484E-01   .302218788080E-01
   .312046189125E-01   .322193152736E-01   .332670070289E-01   .343487671064E-01   .354657033230E-01
   .366189595190E-01   .378097167294E-01   .390391943938E-01   .403086516046E-01   .416193883970E-01
   .429727470800E-01   .443701136111E-01   .458129190158E-01   .473026408530E-01   .488408047279E-01
   .504289858547E-01   .520688106698E-01   .537619584970E-01   .555101632676E-01   .573152152961E-01
   .591789631136E-01   .611033153606E-01   .630902427420E-01   .651417800450E-01   .672600282232E-01
   .694471565478E-01   .717054048293E-01   .740370857112E-01   .764445870386E-01   .789303743032E-01
   .814969931683E-01   .841470720760E-01   .868833249387E-01   .897085539183E-01   .926256522963E-01
   .956376074362E-01   .987475038434E-01   .101958526323E+00   .105273963244E+00   .108697209902E+00
   .112231772002E+00   .115881269243E+00   .119649439031E+00   .123540140299E+00   .127557357467E+00
   .131705204515E+00   .135987929202E+00   .140409917411E+00   .144975697645E+00   .149689945662E+00
   .154557489265E+00   .159583313242E+00   .164772564477E+00   .170130557216E+00   .175662778513E+00
   .181374893845E+00   .187272752918E+00   .193362395655E+00   .199650058381E+00   .206142180214E+00
   .212845409652E+00   .219766611390E+00   .226912873342E+00   .234291513904E+00   .241910089451E+00
   .249776402068E+00   .257898507547E+00   .266284723634E+00   .274943638548E+00   .283884119773E+00
   .293115323144E+00   .302646702219E+00   .312488017964E+00   .322649348746E+00   .333141100655E+00
   .343974018163E+00   .355159195124E+00   .366708086135E+00   .378632518272E+00   .390944703193E+00
   .403657249653E+00   .416783176411E+00   .430335925561E+00   .444329376303E+00   .458777859154E+00
   .473696170623E+00   .489099588364E+00   .505003886824E+00   .521425353393E+00   .538380805088E+00
   .555887605773E+00   .573963683943E+00   .592627551081E+00   .611898320617E+00   .631795727504E+00
   .652340148425E+00   .673552622662E+00   .695454873642E+00   .718069331186E+00   .741419154472E+00
   .765528255761E+00   .790421324879E+00   .816123854504E+00   .842662166272E+00   .870063437734E+00
   .898355730187E+00   .927568017409E+00   .957730215336E+00   .988873212694E+00   .102102890263E+01
   .105423021539E+01   .108851115201E+01   .112390681917E+01   .116045346513E+01   .119818851684E+01
   .123715061829E+01
 aepotential
   .148804407873E+05   .149867364621E+05   .150671132761E+05   .151208910548E+05   .151476179966E+05
   .151470045173E+05   .151190205602E+05   .150637870376E+05   .149816732509E+05   .148732220527E+05
   .147391819453E+05   .145804841644E+05   .143982303281E+05   .141936795514E+05   .139682138148E+05
   .137233669961E+05   .134607410504E+05   .131820197307E+05   .128889545545E+05   .125833164912E+05
   .122668994560E+05   .119414789267E+05   .116088131003E+05   .112706068453E+05   .109285099387E+05
   .105840980439E+05   .102388600088E+05   .989419027033E+04   .955138284703E+04   .921162263385E+04
   .887598545595E+04   .854543518129E+04   .822082449071E+04   .790289644074E+04   .759228800244E+04
   .728953407213E+04   .699507275599E+04   .670925115289E+04   .643233175373E+04   .616449917416E+04
   .590586707864E+04   .565648508266E+04   .541634565499E+04   .518539080641E+04   .496351852209E+04
   .475058888427E+04   .454642979675E+04   .435084231732E+04   .416360559134E+04   .398448123464E+04
   .381321749814E+04   .364955272535E+04   .349321866678E+04   .334394320241E+04   .320145286646E+04
   .306547473716E+04   .293573845119E+04   .281197759850E+04   .269393094855E+04   .258134330733E+04
   .247396672094E+04   .237156043448E+04   .227389207659E+04   .218073749196E+04   .209188091476E+04
   .200711541845E+04   .192624267796E+04   .184907287062E+04   .177542466916E+04   .170512512487E+04
   .163800929580E+04   .157392017539E+04   .151270838094E+04   .145423170565E+04   .139835550400E+04
   .134495096468E+04   .129389720806E+04   .124507781287E+04   .119838402495E+04   .115371136274E+04
   .111096146965E+04   .107004086104E+04   .103086099021E+04   .993337736640E+03   .957391495258E+03
   .922946697890E+03   .889931824337E+03   .858278875108E+03   .827923429751E+03   .798804450971E+03
   .770863937220E+03   .744046854787E+03   .718301029783E+03   .693576897819E+03   .669827372244E+03
   .647007767217E+03   .625075621863E+03   .603990553064E+03   .583714225785E+03   .564210140997E+03
   .545443627366E+03   .527381651547E+03   .509992794090E+03   .493247152134E+03   .477116234356E+03
   .461572887884E+03   .446591250632E+03   .432146651361E+03   .418215567871E+03   .404775551287E+03
   .391805173472E+03   .379283967235E+03   .367192400040E+03   .355511777311E+03   .344224234350E+03
   .333312700381E+03   .322760801252E+03   .312552895567E+03   .302673993865E+03   .293109694304E+03
   .283846241782E+03   .274870398918E+03   .266169486658E+03   .257731297601E+03   .249544132776E+03
   .241596724443E+03   .233878230518E+03   .226378224771E+03   .219086657064E+03   .211993835800E+03
   .205090420462E+03   .198367386939E+03   .191816024399E+03   .185427909448E+03   .179194891532E+03
   .173109086358E+03   .167162845748E+03   .161348761759E+03   .155659638827E+03   .150088493118E+03
   .144628532576E+03   .139273150606E+03   .134015914089E+03   .128850552137E+03   .123770950327E+03
   .118771137310E+03   .113845280099E+03   .108987674047E+03   .104192736494E+03   .994549988134E+02
   .947691008074E+02   .901297845395E+02   .855318886062E+02   .809703430044E+02   .764401644312E+02
   .719364540162E+02   .674543888561E+02   .629892267850E+02   .585362955367E+02   .540909967305E+02
   .496488030335E+02   .452052537667E+02   .407559623390E+02   .362966075218E+02   .318229442474E+02
   .273307984749E+02   .228160725255E+02   .182747501733E+02   .137028992596E+02   .909667864339E+01
   .445234394140E+01  -.233743890267E+00  -.496511013901E+01  -.974515573067E+01  -.145771457605E+02
  -.194641961236E+02  -.244092590030E+02  -.294151064358E+02  -.344843113645E+02  -.396192289394E+02
  -.448219721242E+02  -.500943883401E+02  -.554380322031E+02  -.608541351835E+02  -.663435741517E+02
  -.719068349472E+02  -.775439755818E+02  -.832545837134E+02  -.890377338245E+02  -.948919398048E+02
  -.100815106127E+03  -.106804477380E+03  -.112856586613E+03  -.118967204763E+03  -.125131292277E+03
  -.131342956348E+03  -.137595416383E+03  -.143880982489E+03  -.150191052364E+03  -.156516132855E+03
  -.162845893099E+03  -.169169257743E+03  -.175474546721E+03  -.181749668240E+03  -.187982366447E+03
  -.194160520273E+03  -.200272477684E+03  -.206307395413E+03  -.212255531065E+03  -.218108408190E+03
  -.223858744049E+03  -.229500002467E+03  -.235025425950E+03  -.240426427859E+03  -.245690321327E+03
  -.250797553260E+03  -.255718837882E+03  -.260413094237E+03  -.264826970566E+03  -.268897180252E+03
  -.272556066209E+03  -.275740120981E+03  -.278400093320E+03  -.280510559499E+03  -.282076724632E+03
  -.283136785719E+03  -.283759091746E+03  -.284034346552E+03  -.284064171628E+03  -.283948519236E+03
  -.283775067498E+03  -.283613116540E+03  -.283512631680E+03  -.283507083093E+03  -.283617818074E+03
  -.283858101296E+03  -.284235959115E+03  -.284755843155E+03  -.285419520418E+03  -.286226605313E+03
  -.287174983983E+03  -.288261218634E+03  -.289480920362E+03  -.290829058158E+03  -.292300166845E+03
  -.293888444041E+03  -.295587742682E+03  -.297391464040E+03  -.299292369844E+03  -.301282326907E+03
  -.303351991719E+03  -.305490459507E+03  -.307684892756E+03  -.309920177247E+03  -.312178665710E+03
  -.314440113381E+03  -.316681940270E+03  -.318879990443E+03  -.321009951347E+03  -.323049523138E+03
  -.324981214027E+03  -.326795204017E+03  -.328490963940E+03  -.330075216563E+03  -.331552930769E+03
  -.332908496183E+03  -.334079209616E+03  -.334934231689E+03  -.335282376812E+03  -.334930002775E+03
  -.333780918120E+03  -.331923064115E+03  -.329615225929E+03  -.327147959306E+03  -.324694777393E+03
  -.322283337385E+03  -.319863697851E+03  -.317376984706E+03  -.314784513521E+03  -.312069437276E+03
  -.309228980663E+03  -.306266361973E+03  -.303185374484E+03  -.299987920819E+03  -.296673711837E+03
  -.293241096279E+03  -.289688178227E+03  -.286013766439E+03  -.282217988812E+03  -.278302592318E+03
  -.274270999078E+03  -.270128206620E+03  -.265880597679E+03  -.261535705035E+03  -.257101959226E+03
  -.252588439260E+03  -.248004641718E+03  -.243360248545E+03  -.238664971907E+03  -.233928369839E+03
  -.229159743223E+03  -.224368052899E+03  -.219561878798E+03  -.214749412584E+03  -.209935893001E+03
  -.205131214939E+03  -.200343257416E+03  -.195578977049E+03  -.190845047191E+03  -.186147828217E+03
  -.181493301143E+03  -.176886985058E+03  -.172333858922E+03  -.167838315442E+03  -.163404172869E+03
  -.159034757577E+03  -.154733049994E+03  -.150501858821E+03  -.146343976291E+03  -.142262261988E+03
  -.138259630513E+03
 core charge-density
   .608261306971E-03   .647676557409E-03   .689642829787E-03   .734324920001E-03   .781898239166E-03
   .832549494418E-03   .886477413038E-03   .943893512727E-03   .100502292084E-02   .107010524574E-02
   .113939550348E-02   .121316510334E-02   .129170289586E-02   .137531628734E-02   .146433242484E-02
   .155909945627E-02   .165998787010E-02   .176739191967E-02   .188173113742E-02   .200345194455E-02
   .213302936209E-02   .227096882962E-02   .241780813821E-02   .257411948484E-02   .274051165549E-02
   .291763234505E-02   .310617062227E-02   .330685954875E-02   .352047896125E-02   .374785842734E-02
   .398988038498E-02   .424748347700E-02   .452166609247E-02   .481349012734E-02   .512408497751E-02
   .545465177835E-02   .580646790539E-02   .618089175171E-02   .657936779858E-02   .700343199659E-02
   .745471747575E-02   .793496060384E-02   .844600741341E-02   .898982041905E-02   .956848584756E-02
   .101842213049E-01   .108393839053E-01   .115364788889E-01   .122781687555E-01   .130672829448E-01
   .139068280932E-01   .147999988987E-01   .157501896307E-01   .167610063173E-01   .178362796502E-01
   .189800786439E-01   .201967250935E-01   .214908088711E-01   .228672041082E-01   .243310863096E-01
   .258879504495E-01   .275436300994E-01   .293043176427E-01   .311765856313E-01   .331674093412E-01
   .352841905892E-01   .375347828705E-01   .399275178849E-01   .424712335153E-01   .451753033306E-01
   .480496676815E-01   .511048664651E-01   .543520736317E-01   .578031335116E-01   .614705990420E-01
   .653677719720E-01   .695087451310E-01   .739084468395E-01   .785826875509E-01   .835482088031E-01
   .888227345701E-01   .944250250926E-01   .100374933275E+00   .106693463726E+00   .113402834531E+00
   .120526541818E+00   .128089427210E+00   .136117748214E+00   .144639251626E+00   .153683249988E+00
   .163280701170E+00   .173464291096E+00   .184268519647E+00   .195729789761E+00   .207886499724E+00
   .220779138632E+00   .234450385003E+00   .248945208460E+00   .264310974421E+00   .280597551674E+00
   .297857422703E+00   .316145796594E+00   .335520724294E+00   .356043215990E+00   .377777360283E+00
   .400790444830E+00   .425153078026E+00   .450939311266E+00   .478226761246E+00   .507096731698E+00
   .537634333865E+00   .569928604934E+00   .604072623575E+00   .640163621582E+00   .678303090578E+00
   .718596882551E+00   .761155302911E+00   .806093194625E+00   .853530011807E+00   .903589881039E+00
   .956401648498E+00   .101209891082E+01   .107082002745E+01   .113270811205E+01   .119791100027E+01
   .126658119123E+01   .133887575942E+01   .141495623405E+01   .149498844220E+01   .157914231220E+01
   .166759163334E+01   .176051376786E+01   .185808931086E+01   .196050169366E+01   .206793672605E+01
   .218058207242E+01   .229862665694E+01   .242225999267E+01   .255167142933E+01   .268704931467E+01
   .282858006419E+01   .297644713389E+01   .313082989144E+01   .329190238048E+01   .345983197395E+01
   .363477791210E+01   .381688972159E+01   .400630551276E+01   .420315015273E+01   .440753331305E+01
   .461954739162E+01   .483926530987E+01   .506673818761E+01   .530199289962E+01   .554502952001E+01
   .579581866223E+01   .605429872523E+01   .632037305873E+01   .659390706327E+01   .687472524422E+01
   .716260824163E+01   .745728986215E+01   .775845414243E+01   .806573247788E+01   .837870085478E+01
   .869687722791E+01   .901971909079E+01   .934662128980E+01   .967691413795E+01   .100098618888E+02
   .103446616352E+02   .106804427003E+02   .110162665946E+02   .113511276112E+02   .116839541389E+02
   .120136107693E+02   .123389012770E+02   .126585725499E+02   .129713195450E+02   .132757913383E+02
   .135705983350E+02   .138543206939E+02   .141255180122E+02   .143827403021E+02   .146245402761E+02
   .148494869367E+02   .150561804485E+02   .152432682420E+02   .154094622752E+02   .155535573442E+02
   .156744503061E+02   .157711600388E+02   .158428479263E+02   .158888386205E+02   .159086407910E+02
   .159019675334E+02   .158687560737E+02   .158091863635E+02   .157236981355E+02   .156130059552E+02
   .154781117874E+02   .153203145785E+02   .151412163547E+02   .149427243377E+02   .147270486031E+02
   .144966948328E+02   .142544517633E+02   .140033729925E+02   .137467528842E+02   .134880964057E+02
   .132310828404E+02   .129795234430E+02   .127373132378E+02   .125083773068E+02   .122966120643E+02
   .121058221680E+02   .119396538849E+02   .118015258050E+02   .116945581156E+02   .116215015699E+02
   .115846675794E+02   .115858609273E+02   .116263167255E+02   .117066433254E+02   .118267729491E+02
   .119859218052E+02   .121825614009E+02   .124144026264E+02   .126783939832E+02   .129707350302E+02
   .132869057691E+02   .136217123089E+02   .139693487875E+02   .143234751875E+02   .146773103466E+02
   .150237391007E+02   .153554320923E+02   .156649763479E+02   .159450143019E+02   .161883885509E+02
   .163882892823E+02   .165384010583E+02   .166330454421E+02   .166673158494E+02   .166372009942E+02
   .165396933712E+02   .163728793930E+02   .161360080823E+02   .158295355932E+02   .154551433223E+02
   .150157279556E+02   .145153624614E+02   .139592278162E+02   .133535160630E+02   .127053062088E+02
   .120224153761E+02   .113132285725E+02   .105865113475E+02   .985121045641E+01   .911624837753E+01
   .839031805663E+01   .768168450589E+01   .699799976352E+01   .634613716261E+01   .573204960890E+01
   .516065544272E+01   .463575337296E+01   .415996673517E+01   .373471900118E+01   .336024245347E+01
   .303562550992E+01   .275890299484E+01   .252718821054E+01   .233683584112E+01   .218361724376E+01
   .206289261824E+01   .196977482905E+01   .189928592942E+01   .184650639241E+01   .180671389737E+01
   .177550702919E+01   .174890951410E+01   .172345168084E+01   .169622716253E+01   .166492422350E+01
   .162783240008E+01   .158382631110E+01   .153232943719E+01   .147326136855E+01   .140697244684E+01
   .133416990755E+01   .125583956049E+01   .117316678701E+01   .108746020952E+01   .100008084913E+01
   .912378982273E+00   .825640271249E+00   .741042163808E+00   .659620749931E+00   .582248309423E+00
   .509620600933E+00   .442253161805E+00   .380485405186E+00   .324491173257E+00   .274294292796E+00
   .229787641511E+00   .190754704163E+00   .156891988441E+00   .127831177962E+00   .103160191131E+00
   .824424191370E-01   .652336231538E-01   .510961710168E-01   .396104771078E-01   .303836679902E-01
   .230556252850E-01   .173026541975E-01   .128390915010E-01   .941720326729E-02   .682573405264E-02
   .488745996844E-02
 pspotential
  -.358892368039E+03  -.358892478417E+03  -.358892585312E+03  -.358892688834E+03  -.358892789088E+03
  -.358892886178E+03  -.358892980202E+03  -.358893071257E+03  -.358893159434E+03  -.358893244825E+03
  -.358893327517E+03  -.358893407593E+03  -.358893485135E+03  -.358893560223E+03  -.358893632932E+03
  -.358893703338E+03  -.358893771511E+03  -.358893837521E+03  -.358893901434E+03  -.358893963317E+03
  -.358894023230E+03  -.358894081237E+03  -.358894137393E+03  -.358894191758E+03  -.358894244385E+03
  -.358894295327E+03  -.358894344637E+03  -.358894392362E+03  -.358894438552E+03  -.358894483253E+03
  -.358894526508E+03  -.358894568361E+03  -.358894608854E+03  -.358894648027E+03  -.358894685917E+03
  -.358894722563E+03  -.358894758001E+03  -.358894792264E+03  -.358894825385E+03  -.358894857398E+03
  -.358894888331E+03  -.358894918215E+03  -.358894947078E+03  -.358894974945E+03  -.358895001844E+03
  -.358895027799E+03  -.358895052832E+03  -.358895076967E+03  -.358895100223E+03  -.358895122622E+03
  -.358895144181E+03  -.358895164918E+03  -.358895184850E+03  -.358895203992E+03  -.358895222358E+03
  -.358895239961E+03  -.358895256813E+03  -.358895272924E+03  -.358895288305E+03  -.358895302963E+03
  -.358895316905E+03  -.358895330137E+03  -.358895342664E+03  -.358895354488E+03  -.358895365612E+03
  -.358895376035E+03  -.358895385757E+03  -.358895394775E+03  -.358895403085E+03  -.358895410682E+03
  -.358895417557E+03  -.358895423703E+03  -.358895429106E+03  -.358895433756E+03  -.358895437637E+03
  -.358895440732E+03  -.358895443023E+03  -.358895444486E+03  -.358895445100E+03  -.358895444837E+03
  -.358895443669E+03  -.358895441563E+03  -.358895438485E+03  -.358895434396E+03  -.358895429256E+03
  -.358895423019E+03  -.358895415637E+03  -.358895407056E+03  -.358895397222E+03  -.358895386071E+03
  -.358895373538E+03  -.358895359553E+03  -.358895344038E+03  -.358895326911E+03  -.358895308086E+03
  -.358895287466E+03  -.358895264951E+03  -.358895240433E+03  -.358895213795E+03  -.358895184913E+03
  -.358895153653E+03  -.358895119874E+03  -.358895083423E+03  -.358895044138E+03  -.358895001844E+03
  -.358894956355E+03  -.358894907474E+03  -.358894854987E+03  -.358894798669E+03  -.358894738278E+03
  -.358894673555E+03  -.358894604226E+03  -.358894529995E+03  -.358894450549E+03  -.358894365553E+03
  -.358894274650E+03  -.358894177458E+03  -.358894073570E+03  -.358893962553E+03  -.358893843944E+03
  -.358893717249E+03  -.358893581941E+03  -.358893437459E+03  -.358893283204E+03  -.358893118536E+03
  -.358892942775E+03  -.358892755193E+03  -.358892555016E+03  -.358892341419E+03  -.358892113519E+03
  -.358891870378E+03  -.358891610993E+03  -.358891334298E+03  -.358891039152E+03  -.358890724342E+03
  -.358890388574E+03  -.358890030466E+03  -.358889648547E+03  -.358889241248E+03  -.358888806897E+03
  -.358888343708E+03  -.358887849782E+03  -.358887323089E+03  -.358886761470E+03  -.358886162618E+03
  -.358885524078E+03  -.358884843230E+03  -.358884117282E+03  -.358883343255E+03  -.358882517977E+03
  -.358881638063E+03  -.358880699905E+03  -.358879699659E+03  -.358878633222E+03  -.358877496225E+03
  -.358876284007E+03  -.358874991600E+03  -.358873613707E+03  -.358872144683E+03  -.358870578507E+03
  -.358868908763E+03  -.358867128609E+03  -.358865230751E+03  -.358863207416E+03  -.358861050314E+03
  -.358858750608E+03  -.358856298880E+03  -.358853685086E+03  -.358850898521E+03  -.358847927774E+03
  -.358844760677E+03  -.358841384262E+03  -.358837784701E+03  -.358833947257E+03  -.358829856218E+03
  -.358825494834E+03  -.358820845250E+03  -.358815888433E+03  -.358810604094E+03  -.358804970602E+03
  -.358798964904E+03  -.358792562422E+03  -.358785736956E+03  -.358778460581E+03  -.358770703528E+03
  -.358762434065E+03  -.358753618368E+03  -.358744220383E+03  -.358734201679E+03  -.358723521295E+03
  -.358712135566E+03  -.358699997956E+03  -.358687058860E+03  -.358673265407E+03  -.358658561249E+03
  -.358642886325E+03  -.358626176625E+03  -.358608363927E+03  -.358589375525E+03  -.358569133933E+03
  -.358547556574E+03  -.358524555444E+03  -.358500036767E+03  -.358473900607E+03  -.358446040476E+03
  -.358416342903E+03  -.358384686982E+03  -.358350943891E+03  -.358314976372E+03  -.358276638193E+03
  -.358235773563E+03  -.358192216516E+03  -.358145790255E+03  -.358096306454E+03  -.358043564519E+03
  -.357987350802E+03  -.357927437762E+03  -.357863583081E+03  -.357795528724E+03  -.357722999937E+03
  -.357645704191E+03  -.357563330058E+03  -.357475546020E+03  -.357381999211E+03  -.357282314078E+03
  -.357176090974E+03  -.357062904658E+03  -.356942302717E+03  -.356813803899E+03  -.356676896345E+03
  -.356531035736E+03  -.356375643326E+03  -.356210103880E+03  -.356033763501E+03  -.355845927341E+03
  -.355645857204E+03  -.355432769024E+03  -.355205830232E+03  -.354964156994E+03  -.354706811325E+03
  -.354432798089E+03  -.354141061867E+03  -.353830483707E+03  -.353499877762E+03  -.353147987806E+03
  -.352773483652E+03  -.352374957473E+03  -.351950920031E+03  -.351499796845E+03  -.351019924300E+03
  -.350509545729E+03  -.349966807491E+03  -.349389755078E+03  -.348776329283E+03  -.348124362486E+03
  -.347431575096E+03  -.346695572213E+03  -.345913840591E+03  -.345083745961E+03  -.344202530827E+03
  -.343267312822E+03  -.342275083765E+03  -.341222709525E+03  -.340106930876E+03  -.338924365494E+03
  -.337671511298E+03  -.336344751340E+03  -.334940360505E+03  -.333454514252E+03  -.331883299720E+03
  -.330222729499E+03  -.328468758412E+03  -.326617303700E+03  -.324664269000E+03  -.322605572563E+03
  -.320437180167E+03  -.318155143208E+03  -.315755642486E+03  -.313235038200E+03  -.310589926680E+03
  -.307817204396E+03  -.304914139753E+03  -.301878453160E+03  -.298708405820E+03  -.295402897619E+03
  -.291961574379E+03  -.288384944607E+03  -.284674505692E+03  -.280832879198E+03  -.276863954562E+03
  -.272773039857E+03  -.268567017447E+03  -.264254500754E+03  -.259845985704E+03  -.255353985447E+03
  -.250793127706E+03  -.246180176777E+03  -.241533910415E+03  -.236874726291E+03  -.232223764546E+03
  -.227601220037E+03  -.223023448743E+03  -.218498660451E+03  -.214021845585E+03  -.209570137815E+03
  -.205108222997E+03  -.200606052794E+03  -.196060134068E+03  -.191519593848E+03  -.187057112588E+03
  -.182596314186E+03  -.177701421148E+03  -.172030438836E+03  -.167519054240E+03  -.163153797068E+03
  -.158851988677E+03  -.154616631777E+03  -.150446491431E+03  -.146336907508E+03  -.142271196650E+03
  -.138259195438E+03
 core charge-density (pseudized)
   .269361177906E-08   .287163904185E-08   .306143255335E-08   .326376997313E-08   .347948035816E-08
   .370944755978E-08   .395461384516E-08   .421598375817E-08   .449462823539E-08   .479168899418E-08
   .510838321070E-08   .544600850723E-08   .580594826899E-08   .618967731245E-08   .659876792821E-08
   .703489632335E-08   .749984948946E-08   .799553252468E-08   .852397643965E-08   .908734647935E-08
   .968795099496E-08   .103282509021E-07   .110108697643E-07   .117386045425E-07   .125144370555E-07
   .133415461977E-07   .142233209641E-07   .151633743366E-07   .161655580876E-07   .172339785623E-07
   .183730135040E-07   .195873299917E-07   .208819035623E-07   .222620385983E-07   .237333900611E-07
   .253019866620E-07   .269742555642E-07   .287570487172E-07   .306576709323E-07   .326839098128E-07
   .348440676635E-07   .371469955077E-07   .396021293541E-07   .422195288592E-07   .450099185462E-07
   .479847317469E-07   .511561574491E-07   .545371902394E-07   .581416835469E-07   .619844064066E-07
   .660811039730E-07   .704485620351E-07   .751046757934E-07   .800685231838E-07   .853604430474E-07
   .910021184660E-07   .970166656066E-07   .103428728437E-06   .110264579700E-06   .117552228566E-06
   .125321535394E-06   .133604334082E-06   .142434562503E-06   .151848401561E-06   .161884423435E-06
   .172583749627E-06   .183990219451E-06   .196150569656E-06   .209114625928E-06   .222935507040E-06
   .237669842500E-06   .253378004583E-06   .270124355697E-06   .287977512098E-06   .307010625033E-06
   .327301680469E-06   .348933818629E-06   .371995674638E-06   .396581741700E-06   .422792758260E-06
   .450736120767E-06   .480526323708E-06   .512285428732E-06   .546143564768E-06   .582239461207E-06
   .620721016315E-06   .661745903218E-06   .705482215928E-06   .752109158072E-06   .801817777140E-06
   .854811747249E-06   .911308203653E-06   .971538632390E-06   .103574981874E-05   .110420485835E-05
   .117718423519E-05   .125498697076E-05   .133793184922E-05   .142635872351E-05   .152062990776E-05
   .162113166175E-05   .172827577346E-05   .184250124621E-05   .196427609726E-05   .209409927533E-05
   .223250270476E-05   .238005346488E-05   .253735611323E-05   .270505516248E-05   .288383772089E-05
   .307443630732E-05   .327763185230E-05   .349425689726E-05   .372519900538E-05   .397140439760E-05
   .423388182906E-05   .451370672159E-05   .481202556926E-05   .513006063505E-05   .546911495785E-05
   .583057769022E-05   .621592978890E-05   .662675008119E-05   .706472173223E-05   .753163913941E-05
   .802941528237E-05   .856008955848E-05   .912583613595E-05   .972897285874E-05   .103719707397E-04
   .110574640805E-04   .117882612606E-04   .125673562382E-04   .133979408109E-04   .142834176860E-04
   .152274144147E-04   .162337982451E-04   .173066919570E-04   .184504907415E-04   .196698801962E-04
   .209698555064E-04   .223557418946E-04   .238332164184E-04   .254083312076E-04   .270875382347E-04
   .288777157204E-04   .307861962803E-04   .328207969300E-04   .349898510682E-04   .373022425703E-04
   .397674421301E-04   .423955459974E-04   .451973172705E-04   .481842299099E-04   .513685156528E-04
   .547632140201E-04   .583822256160E-04   .622403689407E-04   .663534409421E-04   .707382815560E-04
   .754128424930E-04   .803962605522E-04   .857089357583E-04   .913726146360E-04   .974104789598E-04
   .103847240336E-03   .110709240998E-03   .118024561220E-03   .125823133782E-03   .134136865943E-03
   .142999769416E-03   .152448098857E-03   .162520499426E-03   .173258164015E-03   .184705000753E-03
   .196907811469E-03   .209916481809E-03   .223784183767E-03   .238567591427E-03   .254327110762E-03
   .271127124397E-03   .289036252284E-03   .308127629327E-03   .328479201008E-03   .350174038185E-03
   .373300672261E-03   .397953452016E-03   .424232923474E-03   .452246234242E-03   .482107563860E-03
   .513938581774E-03   .547868934665E-03   .584036764927E-03   .622589262224E-03   .663683250147E-03
   .707485810105E-03   .754174944701E-03   .803940282965E-03   .856983829946E-03   .913520763280E-03
   .973780279496E-03   .103800649295E-02   .110645939042E-02   .117941584453E-02   .125717068929E-02
   .134003786127E-02   .142835160989E-02   .152246778069E-02   .162276517528E-02   .172964699209E-02
   .184354235198E-02   .196490791286E-02   .209422957770E-02   .223202430024E-02   .237884199285E-02
   .253526754094E-02   .270192292841E-02   .287946947833E-02   .306861021335E-02   .327009233967E-02
   .348470985858E-02   .371330630909E-02   .395677764458E-02   .421607524637E-02   .449220907576E-02
   .478625096607E-02   .509933805441E-02   .543267635253E-02   .578754445406E-02   .616529737411E-02
   .656737051525E-02   .699528375136E-02   .745064561847E-02   .793515759816E-02   .845061847599E-02
   .899892875272E-02   .958209508156E-02   .102022346991E-01   .108615798112E-01   .115624818874E-01
   .123074158111E-01   .130989838190E-01   .139399191589E-01   .148330893774E-01   .157814991375E-01
   .167882924527E-01   .178567542034E-01   .189903107855E-01   .201925297184E-01   .214671180146E-01
   .228179190904E-01   .242489079638E-01   .257641844580E-01   .273679640895E-01   .290645662872E-01
   .308583995422E-01   .327539430478E-01   .347557243398E-01   .368682923970E-01   .390961856114E-01
   .414438939789E-01   .439158148100E-01   .465162012022E-01   .492491024610E-01   .521182956064E-01
   .551272070567E-01   .582788235428E-01   .615755912836E-01   .650193024440E-01   .686109679126E-01
   .723506754803E-01   .762374325817E-01   .802689928889E-01   .844416662370E-01   .887501116112E-01
   .931871132773E-01   .977433405757E-01   .102407092473E+00   .107164028675E+00   .111996889982E+00
   .116885211633E+00   .121805034664E+00   .126728621834E+00   .131624186422E+00   .136455644278E+00
   .141182401811E+00   .145759195240E+00   .150135999275E+00   .154258026484E+00   .158065841845E+00
   .161495620202E+00   .164479577441E+00   .166946608928E+00   .168823170725E+00   .170034440003E+00
   .170505790269E+00   .170164613944E+00   .168942518584E+00   .166777912768E+00   .163618982164E+00
   .159427034489E+00   .154180162520E+00   .147877135904E+00   .140541384051E+00   .132224873066E+00
   .123011609459E+00   .113020422917E+00   .102406592189E+00   .913617862579E-01   .801117046909E-01
   .689107268124E-01   .580328340846E-01   .477580737424E-01   .383539097496E-01   .300509905069E-01
   .230131870598E-01   .173022589520E-01   .128390915010E-01   .941720326729E-02   .682573405264E-02
   .488745996844E-02
 pseudo wavefunction
   .117315845253E-07   .125069530837E-07   .133335676093E-07   .142148150712E-07   .151543062909E-07
   .161558907382E-07   .172236723031E-07   .183620261120E-07   .195756164534E-07   .208694158902E-07
   .222487256337E-07   .237191972649E-07   .252868558915E-07   .269581248348E-07   .287398519488E-07
   .306393376786E-07   .326643649732E-07   .348232311754E-07   .371247820190E-07   .395784478735E-07
   .421942823844E-07   .449830036662E-07   .479560382195E-07   .511255677495E-07   .545045790794E-07
   .581069173624E-07   .619473428113E-07   .660415911761E-07   .704064382202E-07   .750597684574E-07
   .800206484312E-07   .853094048387E-07   .909477078166E-07   .969586597326E-07   .103366889845E-06
   .110198655217E-06   .117481948306E-06   .125246611654E-06   .133524460171E-06   .142349411486E-06
   .151757624928E-06   .161787649678E-06   .172480582727E-06   .183880237260E-06   .196033322181E-06
   .208989633495E-06   .222802258340E-06   .237527792510E-06   .253226572347E-06   .269962921963E-06
   .287805416801E-06   .306827164616E-06   .327106105023E-06   .348725328849E-06   .371773418586E-06
   .396344811348E-06   .422540185815E-06   .450466874754E-06   .480239304802E-06   .511979465313E-06
   .545817408197E-06   .581891780790E-06   .620350393945E-06   .661350827668E-06   .705061076783E-06
   .751660239268E-06   .801339250086E-06   .854301663514E-06   .910764487181E-06   .970959071228E-06
   .103513205623E-05   .110354638377E-05   .117648237380E-05   .125423887324E-05   .133713448041E-05
   .142550885047E-05   .151972408709E-05   .162016622614E-05   .172724681734E-05   .184140461062E-05
   .196310735370E-05   .209285370871E-05   .223117529531E-05   .237863886889E-05   .253584864278E-05
   .270344876387E-05   .288212595189E-05   .307261231304E-05   .327568833969E-05   .349218610827E-05
   .372299268844E-05   .396905377772E-05   .423137757617E-05   .451103891728E-05   .480918367176E-05
   .512703344241E-05   .546589056932E-05   .582714346572E-05   .621227230661E-05   .662285509322E-05
   .706057411833E-05   .752722285882E-05   .802471332370E-05   .855508388782E-05   .912050764318E-05
   .972330130218E-05   .103659346892E-04   .110510408597E-04   .117814268872E-04   .125600853642E-04
   .133902066624E-04   .142751920031E-04   .152186673918E-04   .162244984726E-04   .172968063656E-04
   .184399845492E-04   .196587168595E-04   .209579966776E-04   .223431473857E-04   .238198441743E-04
   .253941372906E-04   .270724768224E-04   .288617391202E-04   .307692549643E-04   .328028395932E-04
   .349708247156E-04   .372820926372E-04   .397461126422E-04   .423729797781E-04   .451734562019E-04
   .481590152580E-04   .513418884677E-04   .547351156215E-04   .583525981805E-04   .622091562043E-04
   .663205890387E-04   .707037400103E-04   .753765653939E-04   .803582079333E-04   .856690752163E-04
   .913309232241E-04   .973669453957E-04   .103801867573E-03   .110662049210E-03   .117975591266E-03
   .125772451213E-03   .134084565637E-03   .142945980928E-03   .152392992587E-03   .162464293731E-03
   .173201133381E-03   .184647485200E-03   .196850227349E-03   .209859334203E-03   .223728080707E-03
   .238513260191E-03   .254275416547E-03   .271079091696E-03   .288993089352E-03   .308090756160E-03
   .328450281336E-03   .350155016032E-03   .373293813710E-03   .397961392909E-03   .424258723860E-03
   .452293440521E-03   .482180279679E-03   .514041548901E-03   .548007625203E-03   .584217486447E-03
   .622819277600E-03   .663970914111E-03   .707840724832E-03   .754608137043E-03   .804464406311E-03
   .857613394088E-03   .914272396136E-03   .974673025056E-03   .103906215042E-02   .110770290018E-02
   .118087572737E-02   .125887954617E-02   .134203294187E-02   .143067545941E-02   .152516897547E-02
   .162589915953E-02   .173327702936E-02   .184774060710E-02   .196975668204E-02   .209982268705E-02
   .223846869554E-02   .238625954655E-02   .254379710601E-02   .271172267230E-02   .289071953530E-02
   .308151569804E-02   .328488677099E-02   .350165904933E-02   .373271278416E-02   .397898565922E-02
   .424147648529E-02   .452124912486E-02   .481943666059E-02   .513724582147E-02   .547596168123E-02
   .583695264439E-02   .622167573573E-02   .663168220979E-02   .706862349751E-02   .753425750771E-02
   .803045530182E-02   .855920816051E-02   .912263506172E-02   .972299058952E-02   .103626732939E-01
   .110442345216E-01   .117703877380E-01   .125440183606E-01   .133681941232E-01   .142461759899E-01
   .151814296385E-01   .161776375280E-01   .172387115691E-01   .183688064073E-01   .195723333335E-01
   .208539748271E-01   .222186997366E-01   .236717790982E-01   .252188025832E-01   .268656955649E-01
   .286187367814E-01   .304845765651E-01   .324702555986E-01   .345832241427E-01   .368313616681E-01
   .392229968061E-01   .417669275129E-01   .444724413199E-01   .473493355175E-01   .504079370888E-01
   .536591221771E-01   .571143348323E-01   .607856047387E-01   .646855635764E-01   .688274596146E-01
   .732251700724E-01   .778932107129E-01   .828467420585E-01   .881015715292E-01   .936741507097E-01
   .995815668413E-01   .105841527522E+00   .112472337466E+00   .119492866032E+00   .126922504078E+00
   .134781108538E+00   .143088932928E+00   .151866541806E+00   .161134707021E+00   .170914283346E+00
   .181226060912E+00   .192090591609E+00   .203527986426E+00   .215557680473E+00   .228198162253E+00
   .241466663559E+00   .255378806258E+00   .269948202133E+00   .285186001946E+00   .301100389977E+00
   .317696020474E+00   .334973392847E+00   .352928162936E+00   .371550388494E+00   .390823708073E+00
   .410724453901E+00   .431220701138E+00   .452271258165E+00   .473824605377E+00   .495817793388E+00
   .518175315686E+00   .540807975691E+00   .563611773932E+00   .586466847677E+00   .609236502955E+00
   .631766387336E+00   .653883861156E+00   .675397634855E+00   .696097750508E+00   .715755996108E+00
   .734126851189E+00   .750949071090E+00   .765948023772E+00   .778838896112E+00   .789330884584E+00
   .797132476130E+00   .801957906575E+00   .803534853410E+00   .801613374223E+00   .795976038347E+00
   .786449114253E+00   .772914566096E+00   .755322477645E+00   .733703360020E+00   .708179613001E+00
   .678975203211E+00   .646422406052E+00   .610964247549E+00   .573151101089E+00   .533629774907E+00
   .493123412532E+00   .452400674124E+00   .412233035568E+00   .373339705182E+00   .336320686142E+00
   .301579968070E+00   .269255777944E+00   .239329071643E+00   .211762041531E+00   .186498369046E+00
   .163465149229E+00
 ae wavefunction
  -.358772724232E-05  -.380157798442E-05  -.402732818006E-05  -.426569159872E-05  -.451742278211E-05
  -.478331954260E-05  -.506422561264E-05  -.536103344871E-05  -.567468720839E-05  -.600618590771E-05
  -.635658676061E-05  -.672700873653E-05  -.711863632077E-05  -.753272351200E-05  -.797059806080E-05
  -.843366597689E-05  -.892341629781E-05  -.944142616806E-05  -.998936622084E-05  -.105690062974E-04
  -.111822215213E-04  -.118309987450E-04  -.125174434030E-04  -.132437867843E-04  -.140123937658E-04
  -.148257710218E-04  -.156865757472E-04  -.165976249290E-04  -.175619051940E-04  -.185825832758E-04
  -.196630171360E-04  -.208067677863E-04  -.220176118498E-04  -.232995549139E-04  -.246568457230E-04
  -.260939912653E-04  -.276157728099E-04  -.292272629558E-04  -.309338437569E-04  -.327412259914E-04
  -.346554696503E-04  -.366830057201E-04  -.388306593445E-04  -.411056744523E-04  -.435157399452E-04
  -.460690175440E-04  -.487741714004E-04  -.516403995860E-04  -.546774675773E-04  -.578957438657E-04
  -.613062378243E-04  -.649206399792E-04  -.687513648323E-04  -.728115964038E-04  -.771153366597E-04
  -.816774570147E-04  -.865137530967E-04  -.916410029836E-04  -.970770291314E-04  -.102840764227E-03
  -.108952321205E-03  -.115433067702E-03  -.122305705216E-03  -.129594353274E-03  -.137324638916E-03
  -.145523791824E-03  -.154220745461E-03  -.163446244582E-03  -.173232959517E-03  -.183615607637E-03
  -.194631082480E-03  -.206318590955E-03  -.218719799181E-03  -.231878987458E-03  -.245843214900E-03
  -.260662494467E-03  -.276389978739E-03  -.293082157508E-03  -.310799067419E-03  -.329604514880E-03
  -.349566312592E-03  -.370756530904E-03  -.393251764580E-03  -.417133416143E-03  -.442487996580E-03
  -.469407444612E-03  -.497989465501E-03  -.528337890637E-03  -.560563059086E-03  -.594782222356E-03
  -.631119973828E-03  -.669708704196E-03  -.710689084438E-03  -.754210577953E-03  -.800431983469E-03
  -.849522010509E-03  -.901659889256E-03  -.957036016741E-03  -.101585264140E-02  -.107832458810E-02
  -.114468002598E-02  -.121516128122E-02  -.129002569750E-02  -.136954654641E-02  -.145401399074E-02
  -.154373610330E-02  -.163903994419E-02  -.174027269972E-02  -.184780288595E-02  -.196202162031E-02
  -.208334396461E-02  -.221221034305E-02  -.234908803896E-02  -.249447277398E-02  -.264889037365E-02
  -.281289852355E-02  -.298708862001E-02  -.317208771985E-02  -.336856059332E-02  -.357721188510E-02
  -.379878838743E-02  -.403408143049E-02  -.428392939446E-02  -.454922034817E-02  -.483089481895E-02
  -.512994869867E-02  -.544743629054E-02  -.578447350147E-02  -.614224118453E-02  -.652198863606E-02
  -.692503725168E-02  -.735278434529E-02  -.780670713489E-02  -.828836689863E-02  -.879941330428E-02
  -.934158891449E-02  -.991673387015E-02  -.105267907529E-01  -.111738096276E-01  -.118599532644E-01
  -.125875025394E-01  -.133588620108E-01  -.141765656677E-01  -.150432828464E-01  -.159618243062E-01
  -.169351484585E-01  -.179663677359E-01  -.190587550915E-01  -.202157506105E-01  -.214409682180E-01
  -.227382024613E-01  -.241114353426E-01  -.255648431741E-01  -.271028034242E-01  -.287299015186E-01
  -.304509375544E-01  -.322709328836E-01  -.341951365124E-01  -.362290312600E-01  -.383783396141E-01
  -.406490292099E-01  -.430473178580E-01  -.455796780323E-01  -.482528407249E-01  -.510737985658E-01
  -.540498080917E-01  -.571883910444E-01  -.604973345622E-01  -.639846901228E-01  -.676587710785E-01
  -.715281486175E-01  -.756016459698E-01  -.798883306631E-01  -.843975046225E-01  -.891386918925E-01
  -.941216237469E-01  -.993562209393E-01  -.104852572829E+00  -.110620913113E+00  -.116671591865E+00
  -.123015043590E+00  -.129661750980E+00  -.136622204042E+00  -.143906854263E+00  -.151526063493E+00
  -.159490047165E+00  -.167808811538E+00  -.176492084596E+00  -.185549240254E+00  -.194989215558E+00
  -.204820420518E+00  -.215050640299E+00  -.225686929464E+00  -.236735498015E+00  -.248201589024E+00
  -.260089347658E+00  -.272401681485E+00  -.285140111998E+00  -.298304617359E+00  -.311893466454E+00
  -.325903044447E+00  -.340327670115E+00  -.355159405384E+00  -.370387857604E+00  -.385999975264E+00
  -.401979838023E+00  -.418308442111E+00  -.434963482374E+00  -.451919132458E+00  -.469145824877E+00
  -.486610032938E+00  -.504274056733E+00  -.522095815581E+00  -.540028649383E+00  -.558021131335E+00
  -.576016894209E+00  -.593954472041E+00  -.611767158572E+00  -.629382883360E+00  -.646724106373E+00
  -.663707732448E+00  -.680245048439E+00  -.696241688235E+00  -.711597633700E+00  -.726207262402E+00
  -.739959454872E+00  -.752737774701E+00  -.764420733270E+00  -.774882147770E+00  -.783991596299E+00
  -.791614969097E+00  -.797615111500E+00  -.801852553465E+00  -.804186321970E+00  -.804474834986E+00
  -.802576877184E+00  -.798352657767E+00  -.791664949586E+00  -.782380307111E+00  -.770370359044E+00
  -.755513169908E+00  -.737694663740E+00  -.716810101809E+00  -.692765604960E+00  -.665479709854E+00
  -.634884946638E+00  -.600929423625E+00  -.563578402633E+00  -.522815846198E+00  -.478645915540E+00
  -.431094395859E+00  -.380210022935E+00  -.326065683239E+00  -.268759457860E+00  -.208415479890E+00
  -.145184574868E+00  -.792446552003E-01  -.108008416643E-01   .599147121975E-01   .132643315154E+00
   .207100576066E+00   .282977613280E+00   .359942675688E+00   .437643227491E+00   .515708546104E+00
   .593752832389E+00   .671378690864E+00   .748180588901E+00   .823747648450E+00   .897665135025E+00
   .969514616502E+00   .103887397347E+01   .110531947815E+01   .116843160477E+01   .122780376635E+01
   .128305115597E+01   .133381755281E+01   .137978000005E+01   .142065231462E+01   .145618821430E+01
   .148618434131E+01   .151048311793E+01   .152897521589E+01   .154160140263E+01   .154835358309E+01
   .154927493998E+01   .154445915985E+01   .153404879025E+01   .151823281191E+01   .149724352550E+01
   .147135286374E+01   .144086823662E+01   .140612801695E+01   .136749676898E+01   .132536031517E+01
   .128012072979E+01   .123219133805E+01   .118199179436E+01   .112994329813E+01   .107646400554E+01
   .102196468271E+01   .966844642953E+00   .911488006010E+00   .856260314073E+00   .801505497438E+00
   .747543093052E+00   .694666261436E+00   .643140212108E+00   .593200965759E+00   .545054565297E+00
   .498876720348E+00   .454812860617E+00   .412978566991E+00   .373460346132E+00   .336316714991E+00
   .301579564832E+00   .269255777944E+00   .239329071643E+00   .211762041531E+00   .186498369046E+00
   .163465149229E+00
 pseudo wavefunction
  -.422986240922E-08  -.450942415998E-08  -.480746281712E-08  -.512519956369E-08  -.546393629360E-08
  -.582506094609E-08  -.621005319258E-08  -.662049049955E-08  -.705805459200E-08  -.752453834416E-08
  -.802185312561E-08  -.855203663292E-08  -.911726123887E-08  -.971984289358E-08  -.103622506138E-07
  -.110471165997E-07  -.117772470194E-07  -.125556335079E-07  -.133854654241E-07  -.142701429195E-07
  -.152132908695E-07  -.162187737263E-07  -.172907113530E-07  -.184334959041E-07  -.196518098223E-07
  -.209506450237E-07  -.223353233524E-07  -.238115183857E-07  -.253852786810E-07  -.270630525593E-07
  -.288517145265E-07  -.307585934408E-07  -.327915025420E-07  -.349587714656E-07  -.372692803723E-07
  -.397324963334E-07  -.423585121217E-07  -.451580875648E-07  -.481426936330E-07  -.513245594397E-07
  -.547167223494E-07  -.583330813965E-07  -.621884542352E-07  -.662986378531E-07  -.706804732977E-07
  -.753519146806E-07  -.803321027423E-07  -.856414432795E-07  -.913016907553E-07  -.973360374353E-07
  -.103769208416E-06  -.110627562932E-06  -.117939202360E-06  -.125734085362E-06  -.134044150635E-06
  -.142903447777E-06  -.152348276804E-06  -.162417336878E-06  -.173151884877E-06  -.184595904440E-06
  -.196796286180E-06  -.209803019816E-06  -.223669398998E-06  -.238452239668E-06  -.254212112860E-06
  -.271013592875E-06  -.288925521872E-06  -.308021291931E-06  -.328379145773E-06  -.350082497342E-06
  -.373220273581E-06  -.397887278801E-06  -.424184583117E-06  -.452219936574E-06  -.482108210629E-06
  -.513971868816E-06  -.547941468522E-06  -.584156195914E-06  -.622764436233E-06  -.663924381769E-06
  -.707804680023E-06  -.754585124699E-06  -.804457392373E-06  -.857625827843E-06  -.914308281377E-06
  -.974737001306E-06  -.103915958560E-05  -.110783999632E-05  -.118105964115E-05  -.125911852638E-05
  -.134233648606E-05  -.143105449246E-05  -.152563605304E-05  -.162646869984E-05  -.173396557724E-05
  -.184856713463E-05  -.197074293100E-05  -.210099355877E-05  -.223985269471E-05  -.238788928645E-05
  -.254570988347E-05  -.271396112210E-05  -.289333237479E-05  -.308455857439E-05  -.328842322508E-05
  -.350576161235E-05  -.373746422491E-05  -.398448040292E-05  -.424782222717E-05  -.452856866524E-05
  -.482786999171E-05  -.514695250036E-05  -.548712352776E-05  -.584977680874E-05  -.623639818581E-05
  -.664857169566E-05  -.708798605791E-05  -.755644159251E-05  -.805585759411E-05  -.858828019366E-05
  -.915589073936E-05  -.976101473122E-05  -.104061313459E-04  -.110938835905E-04  -.118270891274E-04
  -.126087518140E-04  -.134420740040E-04  -.143304696623E-04  -.152775783449E-04  -.162872801027E-04
  -.173637113695E-04  -.185112818982E-04  -.197346928168E-04  -.210389558750E-04  -.224294139620E-04
  -.239117629795E-04  -.254920751572E-04  -.271768239078E-04  -.289729103227E-04  -.308876914156E-04
  -.329290102298E-04  -.351052279322E-04  -.374252580240E-04  -.398986028087E-04  -.425353922643E-04
  -.453464254794E-04  -.483432148215E-04  -.515380330160E-04  -.549439633297E-04  -.585749530596E-04
  -.624458705474E-04  -.665725659484E-04  -.709719360036E-04  -.756619930757E-04  -.806619387297E-04
  -.859922421555E-04  -.916747237505E-04  -.977326441981E-04  -.104190799404E-03  -.111075621672E-03
  -.118415287524E-03  -.126239832609E-03  -.134581274143E-03  -.143473741396E-03  -.152953614727E-03
  -.163059673737E-03  -.173833255131E-03  -.185318420906E-03  -.197562137560E-03  -.210614467003E-03
  -.224528769956E-03  -.239361922622E-03  -.255174547501E-03  -.272031259241E-03  -.290000926508E-03
  -.309156950888E-03  -.329577563915E-03  -.351346143387E-03  -.374551550177E-03  -.399288486872E-03
  -.425657879582E-03  -.453767284418E-03  -.483731320163E-03  -.515672128786E-03  -.549719865547E-03
  -.586013220508E-03  -.624699973418E-03  -.665937584015E-03  -.709893819911E-03  -.756747424367E-03
  -.806688826349E-03  -.859920895428E-03  -.916659744204E-03  -.977135581052E-03  -.104159361617E-02
  -.111029502404E-02  -.118351796549E-02  -.126155867288E-02  -.134473260189E-02  -.143337565355E-02
  -.152784547060E-02  -.162852281189E-02  -.173581300921E-02  -.185014751078E-02  -.197198551567E-02
  -.210181570393E-02  -.224015806688E-02  -.238756584227E-02  -.254462755924E-02  -.271196919762E-02
  -.289025646659E-02  -.308019720720E-02  -.328254392345E-02  -.349809644636E-02  -.372770473514E-02
  -.397227181927E-02  -.423275688489E-02  -.451017850834E-02  -.480561803883E-02  -.512022313146E-02
  -.545521143090E-02  -.581187440431E-02  -.619158132101E-02  -.659578337428E-02  -.702601793865E-02
  -.748391295332E-02  -.797119141960E-02  -.848967599648E-02  -.904129367468E-02  -.962808050452E-02
  -.102521863476E-01  -.109158796165E-01  -.116215519576E-01  -.123717228276E-01  -.131690438996E-01
  -.140163032288E-01  -.149164290916E-01  -.158724934003E-01  -.168877145779E-01  -.179654597599E-01
  -.191092461703E-01  -.203227414930E-01  -.216097630370E-01  -.229742754607E-01  -.244203867910E-01
  -.259523424323E-01  -.275745168203E-01  -.292914023308E-01  -.311075949978E-01  -.330277765430E-01
  -.350566921515E-01  -.371991233605E-01  -.394598553517E-01  -.418436378524E-01  -.443551387610E-01
  -.469988895142E-01  -.497792211031E-01  -.527001895380E-01  -.557654894348E-01  -.589783542743E-01
  -.623414417503E-01  -.658567024900E-01  -.695252302925E-01  -.733470918998E-01  -.773211341845E-01
  -.814447665256E-01  -.857137160437E-01  -.901217532969E-01  -.946603860052E-01  -.993185183825E-01
  -.104082073737E+00  -.108933578162E+00  -.113851703396E+00  -.118810767343E+00  -.123780191263E+00
  -.128723913429E+00  -.133599759980E+00  -.138358774969E+00  -.142944513179E+00  -.147292301201E+00
  -.151328474669E+00  -.154969602378E+00  -.158121711434E+00  -.160679531576E+00  -.162525781444E+00
  -.163530524881E+00  -.163550631352E+00  -.162429381185E+00  -.159996263592E+00  -.156067023085E+00
  -.150444017806E+00  -.142916961166E+00  -.133264125432E+00  -.121254092131E+00  -.106648138337E+00
  -.892033492491E-01  -.686765445127E-01  -.448290971329E-01  -.174327076149E-01   .137238298130E-01
   .488268697042E-01   .880292193476E-01   .131440625386E+00   .179117651416E+00   .231053261983E+00
   .287166555708E+00   .347293236324E+00   .411177571138E+00   .478466754279E+00   .548708755030E+00
   .621354872013E+00   .695768307565E+00   .771240092125E+00   .847013586667E+00   .922318527314E+00
   .996415100878E+00   .106867428316E+01   .113880227130E+01   .120665688075E+01   .127210520562E+01
   .133502139008E+01
 ae wavefunction
   .259291352567E-05   .274746743725E-05   .291062130044E-05   .308289097016E-05   .326482176819E-05
   .345699028886E-05   .366000631384E-05   .387451483859E-05   .410119822395E-05   .434077847805E-05
   .459401966979E-05   .486173049997E-05   .514476701900E-05   .544403551597E-05   .576049558194E-05
   .609516336740E-05   .644911502867E-05   .682349039877E-05   .721949687684E-05   .763841356166E-05
   .808159564165E-05   .855047905395E-05   .904658543734E-05   .957152738820E-05   .101270140495E-04
   .107148570441E-04   .113369767792E-04   .119954091469E-04   .126923126416E-04   .134299759242E-04
   .142108258605E-04   .150374360643E-04   .159125359763E-04   .168390205145E-04   .178199603313E-04
   .188586127172E-04   .199584331912E-04   .211230878224E-04   .223564663294E-04   .236626960063E-04
   .250461565309E-04   .265114957067E-04   .280636462030E-04   .297078433536E-04   .314496440834E-04
   .332949470333E-04   .352500139616E-04   .373214925012E-04   .395164403605E-04   .418423510590E-04
   .443071812944E-04   .469193800480E-04   .496879195329E-04   .526223281091E-04   .557327252826E-04
   .590298589276E-04   .625251448661E-04   .662307089567E-04   .701594318511E-04   .743249965873E-04
   .787419391916E-04   .834257024897E-04   .883926933148E-04   .936603433372E-04   .992471737377E-04
   .105172863958E-03   .111458324796E-03   .118125776104E-03   .125198829385E-03   .132702575581E-03
   .140663678388E-03   .149110473419E-03   .158073073607E-03   .167583481199E-03   .177675706746E-03
   .188385895593E-03   .199752462148E-03   .211816232683E-03   .224620596839E-03   .238211668734E-03
   .252638457900E-03   .267953050944E-03   .284210804344E-03   .301470549220E-03   .319794808665E-03
   .339250028476E-03   .359906822019E-03   .381840230103E-03   .405129996729E-03   .429860861614E-03
   .456122870550E-03   .484011704544E-03   .513629028870E-03   .545082863191E-03   .578487973914E-03
   .613966290089E-03   .651647344148E-03   .691668738910E-03   .734176642303E-03   .779326311355E-03
   .827282647060E-03   .878220781823E-03   .932326701253E-03   .989797902133E-03   .105084408856E-02
   .111568790823E-02   .118456573097E-02   .125772847181E-02   .133544246073E-02   .141799036163E-02
   .150567214290E-02   .159880610216E-02   .169772994785E-02   .180280194050E-02   .191440209634E-02
   .203293345634E-02   .215882342370E-02   .229252517266E-02   .243451913218E-02   .258531454740E-02
   .274545112231E-02   .291550074703E-02   .309606931306E-02   .328779861992E-02   .349136837661E-02
   .370749830144E-02   .393695032352E-02   .418053088940E-02   .443909337816E-02   .471354062809E-02
   .500482757825E-02   .531396402762E-02   .564201751475E-02   .599011632035E-02   .635945259500E-02
   .675128561380E-02   .716694515953E-02   .760783503515E-02   .807543670604E-02   .857131307190E-02
   .909711236721E-02   .965457218859E-02   .102455236463E-01   .108718956363E-01   .115357192274E-01
   .122391321587E-01   .129843834373E-01   .137738380300E-01   .146099816347E-01   .154954255214E-01
   .164329114255E-01   .174253164767E-01   .184756581433E-01   .195870991682E-01   .207629524711E-01
   .220066859868E-01   .233219274063E-01   .247124687839E-01   .261822709675E-01   .277354678074E-01
   .293763700906E-01   .311094691454E-01   .329394400529E-01   .348711443970E-01   .369096324781E-01
   .390601449087E-01   .413281135005E-01   .437191613472E-01   .462391019974E-01   .488939376033E-01
   .516898559239E-01   .546332260507E-01   .577305927142E-01   .609886690206E-01   .644143274593E-01
   .680145890083E-01   .717966101581E-01   .757676676628E-01   .799351408177E-01   .843064910520E-01
   .888892386186E-01   .936909361515E-01   .987191388541E-01   .103981371078E+00   .109485089042E+00
   .115237639435E+00   .121246213658E+00   .127517797444E+00   .134059115594E+00   .140876571603E+00
   .147976181920E+00   .155363504620E+00   .163043562276E+00   .171020758852E+00   .179298790434E+00
   .187880549685E+00   .196768023918E+00   .205962186741E+00   .215462883284E+00   .225268709043E+00
   .235376882509E+00   .245783111750E+00   .256481455267E+00   .267464177507E+00   .278721599539E+00
   .290241945519E+00   .302011185722E+00   .314012877059E+00   .326228002158E+00   .338634808294E+00
   .351208647595E+00   .363921820134E+00   .376743421653E+00   .389639197725E+00   .402571406139E+00
   .415498689142E+00   .428375956921E+00   .441154283331E+00   .453780814598E+00   .466198691672E+00
   .478346987288E+00   .490160659899E+00   .501570528318E+00   .512503273015E+00   .522881472040E+00
   .532623680917E+00   .541644566258E+00   .549855101777E+00   .557162833095E+00   .563472214295E+00
   .568685015710E+00   .572700800037E+00   .575417463279E+00   .576731838174E+00   .576540359423E+00
   .574739791151E+00   .571228017196E+00   .565904893909E+00   .558673164039E+00   .549439428971E+00
   .538115175538E+00   .524617852751E+00   .508871992880E+00   .490810370345E+00   .470375190874E+00
   .447519302070E+00   .422207415027E+00   .394417325210E+00   .364141118895E+00   .331386349729E+00
   .296177168136E+00   .258555384323E+00   .218581444214E+00   .176335296126E+00   .131917125408E+00
   .854479340524E-01   .370699431432E-01  -.130532026200E-01  -.647364473378E-01  -.117773571241E+00
  -.171937691914E+00  -.226982042914E+00  -.282641061641E+00  -.338631826888E+00  -.394655883623E+00
  -.450401453706E+00  -.505545925183E+00  -.559758329964E+00  -.612701337613E+00  -.664032314059E+00
  -.713403454917E+00  -.760461891759E+00  -.804851402892E+00  -.846216910505E+00  -.884211119604E+00
  -.918501211748E+00  -.948774051923E+00  -.974739873316E+00  -.996135153423E+00  -.101272524854E+01
  -.102430697713E+01  -.103071109256E+01  -.103180447851E+01  -.102749189118E+01  -.101771711675E+01
  -.100246347592E+01  -.981753668369E+00  -.955648991664E+00  -.924247995777E+00  -.887684644733E+00
  -.846126063750E+00  -.799769947379E+00  -.748841702762E+00  -.693591397947E+00  -.634290579121E+00
  -.571229015288E+00  -.504711421841E+00  -.435054210093E+00  -.362582301310E+00  -.287626042778E+00
  -.210518257720E+00  -.131591459522E+00  -.511752594078E-01   .304060050268E-01   .112835391359E+00
   .195805171623E+00   .279018378436E+00   .362190085775E+00   .445048429503E+00   .527335342139E+00
   .608807034662E+00   .689234234144E+00   .768402185039E+00   .846110412725E+00   .922172239764E+00
   .996414046648E+00   .106867428316E+01   .113880227130E+01   .120665688075E+01   .127210520562E+01
   .133502139008E+01
 pseudo wavefunction
   .457417182075E-12   .503506109062E-12   .554238913169E-12   .610083507105E-12   .671554950023E-12
   .739220197954E-12   .813703332888E-12   .895691318730E-12   .985940337223E-12   .108528276227E-11
   .119463483701E-11   .131500512433E-11   .144750380903E-11   .159335293705E-11   .175389768653E-11
   .193061877450E-11   .212514611368E-11   .233927384521E-11   .257497688625E-11   .283442914474E-11
   .312002356952E-11   .343439422075E-11   .378044056397E-11   .416135421216E-11   .458064836223E-11
   .504219019747E-11   .555023655495E-11   .610947318660E-11   .672505797633E-11   .740266851153E-11
   .814855444797E-11   .896959515081E-11   .987336314354E-11   .108681939500E-10   .119632629734E-10
   .131686701221E-10   .144955329615E-10   .159560892524E-10   .175638098207E-10   .193335228000E-10
   .212815503924E-10   .234258594099E-10   .257862269828E-10   .283844229667E-10   .312444107269E-10
   .343925681541E-10   .378579309506E-10   .416724604278E-10   .458713382882E-10   .504932911089E-10
   .555809475194E-10   .611812313688E-10   .673457945079E-10   .741314931776E-10   .816009123985E-10
   .898229431971E-10   .988734179918E-10   .108835810002E-09   .119802003125E-09   .131873139391E-09
   .145160551800E-09   .159786791154E-09   .175886756353E-09   .193608938574E-09   .213116790815E-09
   .234590235436E-09   .258227323587E-09   .284246061854E-09   .312886422940E-09   .344412558953E-09
   .379115237689E-09   .417314524407E-09   .459362733804E-09   .505647679431E-09   .556596250521E-09
   .612678349204E-09   .674411224439E-09   .742364242626E-09   .817164138890E-09   .899500797489E-09
   .990133614640E-09   .108989850245E-08   .119971559858E-08   .132059775266E-08   .145365986787E-08
   .160012918369E-08   .176135659473E-08   .193882911010E-08   .213418356805E-08   .234922173259E-08
   .258592691109E-08   .284648224635E-08   .313329085169E-08   .344899797481E-08   .379651539484E-08
   .417904827758E-08   .460012473660E-08   .506362837288E-08   .557383409302E-08   .613544753640E-08
   .675364847499E-08   .743413858585E-08   .818319403721E-08   .900772337282E-08   .991533122865E-08
   .109143884694E-07   .120141093916E-07   .132246367059E-07   .145571350809E-07   .160238941132E-07
   .176384416714E-07   .194156686602E-07   .213719663559E-07   .235253775782E-07   .258957630936E-07
   .285049847849E-07   .313771072752E-07   .345386198672E-07   .380186808421E-07   .418493863744E-07
   .460660665385E-07   .507076111398E-07   .558168283736E-07   .614408396192E-07   .676315140098E-07
   .744459467851E-07   .819469858381E-07   .902038113106E-07   .992925735822E-07   .109297095534E-06
   .120309645566E-06   .132431788488E-06   .145775322137E-06   .160463308353E-06   .176631207821E-06
   .194428129227E-06   .214018204276E-06   .235582101207E-06   .259318690795E-06   .285446880168E-06
   .314207631362E-06   .345866183213E-06   .380714497059E-06   .419073948809E-06   .461298292173E-06
   .507776920370E-06   .558938456373E-06   .615254704769E-06   .677245001650E-06   .745481002618E-06
   .820591953002E-06   .903270488857E-06   .994279022168E-06   .109445676907E-05   .120472748585E-05
   .132610798390E-05   .145971750208E-05   .160678802287E-05   .176867562702E-05   .194687299160E-05
   .214302314608E-05   .235893461337E-05   .259659807495E-05   .285820471343E-05   .314616640134E-05
   .346313792174E-05   .381204142501E-05   .419609334663E-05   .461883403342E-05   .508416035042E-05
   .559636156792E-05   .616015885840E-05   .678074876589E-05   .746385104682E-05   .821576132137E-05
   .904340901826E-05   .995442114444E-05   .109571924640E-04   .120609627298E-04   .132759016740E-04
   .146132025375E-04   .160851849922E-04   .177054083977E-04   .194887964289E-04   .214517742107E-04
   .236124192137E-04   .259906272863E-04   .286082953362E-04   .314895223264E-04   .346608304144E-04
   .381514082450E-04   .419933786065E-04   .462220928808E-04   .508764549542E-04   .559992775231E-04
   .616376740171E-04   .678434896770E-04   .746737756776E-04   .821913105627E-04   .904651736812E-04
   .995713757704E-04   .109593552335E-03   .120623726019E-03   .132763144779E-03   .146123203310E-03
   .160826455908E-03   .177007729753E-03   .194815348422E-03   .214412476432E-03   .235978596588E-03
   .259711133094E-03   .285827234542E-03   .314565732278E-03   .346189291080E-03   .380986770646E-03
   .419275818128E-03   .461405713809E-03   .507760494022E-03   .558762377630E-03   .614875524740E-03
   .676610158871E-03   .744527086613E-03   .819242651715E-03   .901434163819E-03   .991845845433E-03
   .109129534445E-02   .120068086341E-02   .132098896099E-02   .145330308538E-02   .159881290435E-02
   .175882450116E-02   .193477151124E-02   .212822727954E-02   .234091812415E-02   .257473779768E-02
   .283176324344E-02   .311427174960E-02   .342475961008E-02   .376596240687E-02   .414087703336E-02
   .455278558370E-02   .500528123704E-02   .550229626884E-02   .604813232374E-02   .664749308474E-02
   .730551947215E-02   .802782750162E-02   .882054892358E-02   .969037475551E-02   .106446018029E-01
   .116911822435E-01   .128387763220E-01   .140968081664E-01   .154755246914E-01   .169860574983E-01
   .186404876127E-01   .204519128123E-01   .224345172009E-01   .246036425550E-01   .269758608292E-01
   .295690470282E-01   .324024514526E-01   .354967700873E-01   .388742116230E-01   .425585592844E-01
   .465752252696E-01   .509512951903E-01   .557155594268E-01   .608985277808E-01   .665324232157E-01
   .726511498190E-01   .792902294013E-01   .864867003743E-01   .942789717199E-01   .102706623995E+00
   .111810148433E+00   .121630614300E+00   .132209253842E+00   .143586953355E+00   .155803638317E+00
   .168897540091E+00   .182904331624E+00   .197856119902E+00   .213780283823E+00   .230698147801E+00
   .248623484009E+00   .267560839918E+00   .287503692975E+00   .308432441141E+00   .330312246884E+00
   .353090763404E+00   .376695785575E+00   .401032884642E+00   .425983105124E+00   .451400824734E+00
   .477111903125E+00   .502912272386E+00   .528567150442E+00   .553811086351E+00   .578349071657E+00
   .601858971407E+00   .623995538001E+00   .644396265515E+00   .662689315047E+00   .678503685380E+00
   .691481709173E+00   .701293814017E+00   .707655291034E+00   .710344554086E+00   .709222046131E+00
   .704248557750E+00   .695501277614E+00   .683185419873E+00   .667638811356E+00   .649326436673E+00
   .628821723149E+00   .606771420529E+00   .583841440988E+00   .560642142397E+00   .537633436159E+00
   .515017714497E+00
 ae wavefunction
   .228058415533E-09   .249682486952E-09   .273141802725E-09   .298609656970E-09   .326274402808E-09
   .356340880674E-09   .389031974579E-09   .424590307719E-09   .463280092062E-09   .505389146274E-09
   .551231096022E-09   .601147778609E-09   .655511866099E-09   .714729731478E-09   .779244579040E-09
   .849539866492E-09   .926143041545E-09   .100962962963E-08   .110062770023E-08   .119982275132E-08
   .130796305085E-08   .142586547749E-08   .155442191070E-08   .169460621949E-08   .184748191046E-08
   .201421049490E-08   .219606064499E-08   .239441821555E-08   .261079721225E-08   .284685179847E-08
   .310438943926E-08   .338538529323E-08   .369199796989E-08   .402658678584E-08   .439173066280E-08
   .479024882638E-08   .522522347839E-08   .570002463387E-08   .621833733150E-08   .678419144626E-08
   .740199435770E-08   .807656674784E-08   .881318183393E-08   .961760836780E-08   .104961577679E-07
   .114557357844E-07   .125038991390E-07   .136489176212E-07   .148998421735E-07   .162665795472E-07
   .177599741687E-07   .193918979201E-07   .211753486025E-07   .231245579334E-07   .252551100028E-07
   .275840712152E-07   .301301328333E-07   .329137673574E-07   .359574000927E-07   .392855973906E-07
   .429252731879E-07   .469059156458E-07   .512598358402E-07   .560224406757E-07   .612325323890E-07
   .669326372376E-07   .731693662452E-07   .799938111363E-07   .874619789076E-07   .956352688145E-07
   .104580995948E-06   .114372965935E-06   .125092105813E-06   .136827156538E-06   .149675433166E-06
   .163743659460E-06   .179148883898E-06   .196019485558E-06   .214496278064E-06   .234733721839E-06
   .256901254649E-06   .281184752579E-06   .307788133718E-06   .336935118924E-06   .368871164671E-06
   .403865585107E-06   .442213881573E-06   .484240300028E-06   .530300638533E-06   .580785329174E-06
   .636122821342E-06   .696783295604E-06   .763282740411E-06   .836187427090E-06   .916118821721E-06
   .100375897654E-05   .109985644738E-05   .120523278835E-05   .132078967962E-05   .144751674992E-05
   .158650016094E-05   .173893202738E-05   .190612075366E-05   .208950237560E-05   .229065300441E-05
   .251130247906E-05   .275334934357E-05   .301887727671E-05   .331017311364E-05   .362974661244E-05
   .398035213274E-05   .436501240955E-05   .478704462259E-05   .525008898053E-05   .575814005945E-05
   .631558115802E-05   .692722195625E-05   .759833979049E-05   .833472488804E-05   .914272993515E-05
   .100293243871E-04   .110021539676E-04   .120696058441E-04   .132408800125E-04   .145260674705E-04
   .159362358154E-04   .174835229556E-04   .191812396907E-04   .210439819815E-04   .230877538048E-04
   .253301015694E-04   .277902611531E-04   .304893187194E-04   .334503865699E-04   .366987954009E-04
   .402623044533E-04   .441713311700E-04   .484592021207E-04   .531624270975E-04   .583209984542E-04
   .639787179336E-04   .701835534165E-04   .769880282322E-04   .844496458863E-04   .926313532999E-04
   .101602045904E-03   .111437118206E-03   .122219063739E-03   .134038128605E-03   .146993023172E-03
   .161191696819E-03   .176752181025E-03   .193803506483E-03   .212486700347E-03   .232955870202E-03
   .255379381779E-03   .279941138009E-03   .306841967480E-03   .336301130992E-03   .368557955439E-03
   .403873604927E-03   .442532999637E-03   .484846893662E-03   .531154123716E-03   .581824041373E-03
   .637259142229E-03   .697897906140E-03   .764217863507E-03   .836738903328E-03   .916026839605E-03
   .100269725342E-02   .109741962887E-02   .120092180174E-02   .131399474065E-02   .143749768103E-02
   .157236363296E-02   .171960528459E-02   .188032132325E-02   .205570319682E-02   .224704233822E-02
   .245573787598E-02   .268330485389E-02   .293138298237E-02   .320174594369E-02   .349631127268E-02
   .381715083309E-02   .416650190869E-02   .454677892614E-02   .496058582457E-02   .541072908391E-02
   .590023142069E-02   .643234615636E-02   .701057225818E-02   .763867004772E-02   .832067756594E-02
   .906092757649E-02   .986406518149E-02   .107350660148E-01   .116792549680E-01   .127023253937E-01
   .138103587176E-01   .150098443787E-01   .163077000027E-01   .177112916956E-01   .192284543319E-01
   .208675116917E-01   .226372962823E-01   .245471686644E-01   .266070360811E-01   .288273701699E-01
   .312192235187E-01   .337942448058E-01   .365646922379E-01   .395434449702E-01   .427440121479E-01
   .461805391437E-01   .498678104769E-01   .538212487833E-01   .580569090627E-01   .625914672927E-01
   .674422023963E-01   .726269705277E-01   .781641707473E-01   .840727013841E-01   .903719067285E-01
   .970815140627E-01   .104221561380E+00   .111812316308E+00   .119874186715E+00   .128427623131E+00
   .137493012577E+00   .147090562862E+00   .157240176139E+00   .167961310610E+00   .179272829665E+00
   .191192838173E+00   .203738505987E+00   .216925878871E+00   .230769677154E+00   .245283082424E+00
   .260477512736E+00   .276362386989E+00   .292944879448E+00   .310229665747E+00   .328218662182E+00
   .346910760576E+00   .366301561479E+00   .386383109119E+00   .407143631933E+00   .428567293114E+00
   .450633956046E+00   .473318969696E+00   .496592979314E+00   .520421767437E+00   .544766129979E+00
   .569581791405E+00   .594819362585E+00   .620424344742E+00   .646337184253E+00   .672493386497E+00
   .698823703785E+00   .725254422528E+00   .751707786108E+00   .778102594214E+00   .804355000114E+00
   .830379456598E+00   .856089615712E+00   .881398786048E+00   .906219422606E+00   .930461303407E+00
   .954028723034E+00   .976818039927E+00   .998717487847E+00   .101961025870E+01   .103937963863E+01
   .105791364827E+01   .107510767969E+01   .109086544149E+01   .110509922645E+01   .111773020691E+01
   .112868898801E+01   .113791637221E+01   .114536418246E+01   .115099598704E+01   .115478761143E+01
   .115672737889E+01   .115681607195E+01   .115506663771E+01   .115150367643E+01   .114616275582E+01
   .113908959436E+01   .113033915065E+01   .111997465255E+01   .110806659533E+01   .109469173259E+01
   .107993207998E+01   .106387394562E+01   .104660700016E+01   .102822338917E+01   .100881689408E+01
   .988482140047E+00   .967313849776E+00   .945406142212E+00   .922851876650E+00   .899742000312E+00
   .876164762946E+00   .852205394214E+00   .827945770756E+00   .803464091228E+00   .778834590205E+00
   .754127333265E+00   .729408072670E+00   .704738149539E+00   .680174424600E+00   .655769221748E+00
   .631570277365E+00   .607620700360E+00   .583958963614E+00   .560618954925E+00   .537630119714E+00
   .515017714497E+00
 pseudo wavefunction
  -.955124989638E-13  -.105136248917E-12  -.115729678900E-12  -.127390492964E-12  -.140226239729E-12
  -.154355304311E-12  -.169908000202E-12  -.187027771157E-12  -.205872514190E-12  -.226616035870E-12
  -.249449655352E-12  -.274583968929E-12  -.302250792381E-12  -.332705299024E-12  -.366228373201E-12
  -.403129200896E-12  -.443748121381E-12  -.488459766194E-12  -.537676514393E-12  -.591852295962E-12
  -.651486778442E-12  -.717129975405E-12  -.789387319273E-12  -.868925245264E-12  -.956477337981E-12
  -.105285109732E-11  -.115893538611E-11  -.127570862813E-11  -.140424783225E-11  -.154573852572E-11
  -.170148568837E-11  -.187292578860E-11  -.206164003196E-11  -.226936894480E-11  -.249802842724E-11
  -.274972742366E-11  -.302678737368E-11  -.333176362294E-11  -.366746899130E-11  -.403699971562E-11
  -.444376400664E-11  -.489151348313E-11  -.538437777335E-11  -.592690260296E-11  -.652409172051E-11
  -.718145304744E-11  -.790504947802E-11  -.870155479782E-11  -.957831523659E-11  -.105434172230E-10
  -.116057619663E-10  -.127751475530E-10  -.140623593150E-10  -.154792693036E-10  -.170389457864E-10
  -.187557737764E-10  -.206455877062E-10  -.227258174700E-10  -.250156491807E-10  -.275362021243E-10
  -.303107235445E-10  -.333648030539E-10  -.367266086477E-10  -.404271464994E-10  -.445005469323E-10
  -.489843792050E-10  -.539199980154E-10  -.593529249163E-10  -.653332681638E-10  -.719161848674E-10
  -.791623897071E-10  -.871387149069E-10  -.959187266318E-10  -.105583403491E-09  -.116221883405E-09
  -.127932285731E-09  -.140822616218E-09  -.155011763146E-09  -.170630593836E-09  -.187823161644E-09
  -.206748034564E-09  -.227579757701E-09  -.250510463107E-09  -.275751641810E-09  -.303536094395E-09
  -.334120078124E-09  -.367785670390E-09  -.404843370310E-09  -.445634962451E-09  -.490536669094E-09
  -.539962620118E-09  -.594368672494E-09  -.654256614627E-09  -.720178794315E-09  -.792743213009E-09
  -.872619133350E-09  -.960543251711E-09  -.105732649266E-08  -.116386148802E-08  -.128113080948E-08
  -.141021603069E-08  -.155230770243E-08  -.170871633287E-08  -.188088447404E-08  -.207040002623E-08
  -.227901088278E-08  -.250864105039E-08  -.276140839374E-08  -.303964416784E-08  -.334591451841E-08
  -.368304414847E-08  -.405414236948E-08  -.446263177716E-08  -.491227981648E-08  -.540723352692E-08
  -.595205778838E-08  -.655177742040E-08  -.721192352295E-08  -.793858448601E-08  -.873846213842E-08
  -.961893355364E-08  -.105881190824E-07  -.116549572393E-07  -.128292871345E-07  -.141219392094E-07
  -.155448351142E-07  -.171110976469E-07  -.188351717689E-07  -.207329578110E-07  -.228219580991E-07
  -.251214383517E-07  -.276526053356E-07  -.304388024181E-07  -.335057248198E-07  -.368816565489E-07
  -.405977312041E-07  -.446882190483E-07  -.491908429988E-07  -.541471264466E-07  -.596027761104E-07
  -.656081034525E-07  -.722184885405E-07  -.794948906288E-07  -.875044101629E-07  -.963209073862E-07
  -.106025683246E-06  -.116708228869E-06  -.128467050521E-06  -.141410577624E-06  -.155658162221E-06
  -.171341179073E-06  -.188604236520E-06  -.207606509259E-06  -.228523205297E-06  -.251547180589E-06
  -.276890716216E-06  -.304787474450E-06  -.335494651708E-06  -.369295348188E-06  -.406501175989E-06
  -.447455129688E-06  -.492534745755E-06  -.542155579858E-06  -.596775033991E-06  -.656896568596E-06
  -.723074338340E-06  -.795918294126E-06  -.876099798155E-06  -.964357803552E-06  -.106150565525E-05
  -.116843857443E-05  -.128614189524E-05  -.141570012906E-05  -.155830693944E-05  -.171527611901E-05
  -.188805366872E-05  -.207823108981E-05  -.228756001007E-05  -.251796827785E-05  -.277157767077E-05
  -.305072338052E-05  -.335797545133E-05  -.369616236738E-05  -.406839700359E-05  -.447810517566E-05
  -.492905704872E-05  -.542540168927E-05  -.597170507353E-05  -.657299189613E-05  -.723479155695E-05
  -.796318874119E-05  -.876487904828E-05  -.964723017051E-05  -.106183491705E-04  -.116871564609E-04
  -.128634671488E-04  -.141580804705E-04  -.155828781141E-04  -.171509323044E-04  -.188766246080E-04
  -.207757765093E-04  -.228657929102E-04  -.251658198129E-04  -.276969175703E-04  -.304822512143E-04
  -.335472995191E-04  -.369200846107E-04  -.406314241021E-04  -.447152079203E-04  -.492087021883E-04
  -.541528827452E-04  -.595928011198E-04  -.655779860314E-04  -.721628837633E-04  -.794073410539E-04
  -.873771344715E-04  -.961445505811E-04  -.105789021584E-03  -.116397821507E-03  -.128066828440E-03
  -.140901358780E-03  -.155017079901E-03  -.170541008205E-03  -.187612600015E-03  -.206384943357E-03
  -.227026059245E-03  -.249720321699E-03  -.274670006355E-03  -.302096978149E-03  -.332244529208E-03
  -.365379378709E-03  -.401793847101E-03  -.441808217648E-03  -.485773298814E-03  -.534073201460E-03
  -.587128345199E-03  -.645398708487E-03  -.709387337081E-03  -.779644125347E-03  -.856769884442E-03
  -.941420710643E-03  -.103431266583E-02  -.113622678044E-02  -.124801438677E-02  -.137060278752E-02
  -.150500126004E-02  -.165230739215E-02  -.181371373823E-02  -.199051477692E-02  -.218411414133E-02
  -.239603208113E-02  -.262791310102E-02  -.288153370292E-02  -.315881013827E-02  -.346180605217E-02
  -.379273987195E-02  -.415399175840E-02  -.454810989778E-02  -.497781586598E-02  -.544600874192E-02
  -.595576758503E-02  -.651035181939E-02  -.711319898567E-02  -.776791922845E-02  -.847828578159E-02
  -.924822059605E-02  -.100817741232E-01  -.109830981211E-01  -.119564101919E-01  -.130059485846E-01
  -.141359156146E-01  -.153504078519E-01  -.166533310295E-01  -.180482974164E-01  -.195385031975E-01
  -.211265832107E-01  -.228144402263E-01  -.246030458207E-01  -.264922098244E-01  -.284803153238E-01
  -.305640163064E-01  -.327378952796E-01  -.349940786136E-01  -.373218079944E-01  -.397069672740E-01
  -.421315652314E-01  -.445731763521E-01  -.470043437703E-01  -.493919510306E-01  -.516965723742E-01
  -.538718148508E-01  -.558636697077E-01  -.576098951580E-01  -.590394576881E-01  -.600720643299E-01
  -.606178235236E-01  -.605770769047E-01  -.598404479928E-01  -.582891555866E-01  -.557956387243E-01
  -.522245352094E-01  -.474340455929E-01  -.412776977227E-01  -.336065020813E-01  -.242714539179E-01
  -.131262939415E-01  -.303852920232E-04   .151484975663E-01   .325317384548E-01   .522281408473E-01
   .743332623981E-01   .989302208500E-01   .126092332274E+00   .155887822118E+00   .188386610945E+00
   .223668781530E+00   .261833744863E+00   .303008311409E+00   .347350834282E+00   .395047355675E+00
   .446299080959E+00
 ae wavefunction
  -.612387569367E-10  -.670453068585E-10  -.733446609405E-10  -.801833525701E-10  -.876119588156E-10
  -.956854839612E-10  -.104463777399E-09  -.114011988939E-09  -.124401065462E-09  -.135708292784E-09
  -.148017886483E-09  -.161421637601E-09  -.176019617012E-09  -.191920945053E-09  -.209244632099E-09
  -.228120497483E-09  -.248690172852E-09  -.271108199814E-09  -.295543229245E-09  -.322179332884E-09
  -.351217437628E-09  -.382876893918E-09  -.417397191619E-09  -.455039836648E-09  -.496090404665E-09
  -.540860787818E-09  -.589691653405E-09  -.642955134934E-09  -.701057777338E-09  -.764443761098E-09
  -.833598431699E-09  -.909052164177E-09  -.991384594328E-09  -.108122925240E-08  -.117927863763E-08
  -.128628977638E-08  -.140309031009E-08  -.153058516471E-08  -.166976385722E-08  -.182170850106E-08
  -.198760257832E-08  -.216874055228E-08  -.236653840232E-08  -.258254517024E-08  -.281845561628E-08
  -.307612409245E-08  -.335757975150E-08  -.366504322138E-08  -.400094488752E-08  -.436794493975E-08
  -.476895535523E-08  -.520716400662E-08  -.568606110182E-08  -.620946818362E-08  -.678156993809E-08
  -.740694908685E-08  -.809062466343E-08  -.883809400467E-08  -.965537882065E-08  -.105490757417E-07
  -.115264117789E-07  -.125953051822E-07  -.137644322190E-07  -.150433004584E-07  -.164423291944E-07
  -.179729377064E-07  -.196476421280E-07  -.214801617644E-07  -.234855357845E-07  -.256802513035E-07
  -.280823839745E-07  -.307117523100E-07  -.335900870841E-07  -.367412172899E-07  -.401912742626E-07
  -.439689157932E-07  -.481055720959E-07  -.526357159125E-07  -.575971589460E-07  -.630313773796E-07
  -.689838691576E-07  -.755045462910E-07  -.826481654837E-07  -.904748009369E-07  -.990503633648E-07
  -.108447169814E-06  -.118744569191E-06  -.130029628993E-06  -.142397889178E-06  -.155954189729E-06
  -.170813579145E-06  -.187102311697E-06  -.204958942119E-06  -.224535527235E-06  -.245998944921E-06
  -.269532341804E-06  -.295336722239E-06  -.323632692260E-06  -.354662373565E-06  -.388691504020E-06
  -.426011742751E-06  -.466943199657E-06  -.511837211018E-06  -.561079384997E-06  -.615092943117E-06
  -.674342386216E-06  -.739337516170E-06  -.810637847613E-06  -.888857447140E-06  -.974670241027E-06
  -.106881583640E-05  -.117210590499E-05  -.128543118332E-05  -.140976914812E-05  -.154619243133E-05
  -.169587804520E-05  -.186011749439E-05  -.204032785909E-05  -.223806394143E-05  -.245503157542E-05
  -.269310221021E-05  -.295432888683E-05  -.324096373891E-05  -.355547716077E-05  -.390057879838E-05
  -.427924053377E-05  -.469472164821E-05  -.515059636662E-05  -.565078400387E-05  -.619958195326E-05
  -.680170177908E-05  -.746230869838E-05  -.818706476234E-05  -.898217607497E-05  -.985444441660E-05
  -.108113236714E-04  -.118609814932E-04  -.130123666811E-04  -.142752827771E-04  -.156604684411E-04
  -.171796852065E-04  -.188458132694E-04  -.206729560213E-04  -.226765540896E-04  -.248735097188E-04
  -.272823223895E-04  -.299232366454E-04  -.328184031782E-04  -.359920543029E-04  -.394706950435E-04
  -.432833111481E-04  -.474615954494E-04  -.520401940995E-04  -.570569743178E-04  -.625533154175E-04
  -.685744250012E-04  -.751696823565E-04  -.823930112229E-04  -.903032842561E-04  -.989647616737E-04
  -.108447566733E-03  -.118828200867E-03  -.130190101489E-03  -.142624245652E-03  -.156229802974E-03
  -.171114841395E-03  -.187397089588E-03  -.205204760023E-03  -.224677436904E-03  -.245967033416E-03
  -.269238822939E-03  -.294672549086E-03  -.322463619640E-03  -.352824389652E-03  -.385985539170E-03
  -.422197551230E-03  -.461732295897E-03  -.504884726291E-03  -.551974692613E-03  -.603348880297E-03
  -.659382878400E-03  -.720483384356E-03  -.787090551133E-03  -.859680482705E-03  -.938767883517E-03
  -.102490886735E-02  -.111870393058E-02  -.122080109431E-02  -.133189921935E-02  -.145275149691E-02
  -.158416911762E-02  -.172702511955E-02  -.188225841544E-02  -.205087799749E-02  -.223396731630E-02
  -.243268882900E-02  -.264828870922E-02  -.288210170903E-02  -.313555616058E-02  -.341017910193E-02
  -.370760150816E-02  -.402956360559E-02  -.437792024253E-02  -.475464628603E-02  -.516184200940E-02
  -.560173843054E-02  -.607670255614E-02  -.658924248149E-02  -.714201229068E-02  -.773781669652E-02
  -.837961535389E-02  -.907052677480E-02  -.981383176607E-02  -.106129763021E-01  -.114715737329E-01
  -.123934062102E-01  -.133824251896E-01  -.144427508354E-01  -.155786701168E-01  -.167946333449E-01
  -.180952488740E-01  -.194852756834E-01  -.209696135840E-01  -.225532908533E-01  -.242414491976E-01
  -.260393260319E-01  -.279522341650E-01  -.299855390166E-01  -.321446334851E-01  -.344349104868E-01
  -.368617330481E-01  -.394304016817E-01  -.421461187088E-01  -.450139492148E-01  -.480387784286E-01
  -.512252654340E-01  -.545777932101E-01  -.581004150401E-01  -.617967973450E-01  -.656701590135E-01
  -.697232073257E-01  -.739580706302E-01  -.783762280138E-01  -.829784362986E-01  -.877646548309E-01
  -.927339686512E-01  -.978845107668E-01  -.103213384417E+00  -.108716586342E+00  -.114388932221E+00
  -.120223985564E+00  -.126213991395E+00  -.132349816151E+00  -.138620895095E+00  -.145015188528E+00
  -.151519147835E+00  -.158117692324E+00  -.164794197740E+00  -.171530497726E+00  -.178306900369E+00
  -.185102223814E+00  -.191893857547E+00  -.198657858905E+00  -.205369095405E+00  -.212001438273E+00
  -.218527993773E+00  -.224921320541E+00  -.231153529001E+00  -.237196125656E+00  -.243019514493E+00
  -.248592245734E+00  -.253880364496E+00  -.258847356724E+00  -.263454947494E+00  -.267664425139E+00
  -.271437824585E+00  -.274738581899E+00  -.277531746254E+00  -.279784014390E+00  -.281463769207E+00
  -.282541179708E+00  -.282988347920E+00  -.282779461719E+00  -.281890912196E+00  -.280301345832E+00
  -.277991636536E+00  -.274944775795E+00  -.271145686789E+00  -.266580972509E+00  -.261238608323E+00
  -.255107589474E+00  -.248177542100E+00  -.240438305283E+00  -.231879490176E+00  -.222490020575E+00
  -.212257658030E+00  -.201168512816E+00  -.189206541357E+00  -.176353028267E+00  -.162586051444E+00
  -.147879926907E+00  -.132204629984E+00  -.115525189298E+00  -.978010500264E-01  -.789853985955E-01
  -.590244356528E-01  -.378566521176E-01  -.154120409334E-01   .838875536384E-02   .336353698925E-01
   .604287171692E-01   .888820959247E-01   .119122404811E+00   .151291486143E+00   .185547611398E+00
   .222067121888E+00   .261046241102E+00   .302703085314E+00   .347279915738E+00   .395045700569E+00
   .446299080959E+00
 pseudo wavefunction
   .188844262739E-04   .194985007093E-04   .201325433138E-04   .207872034025E-04   .214631514045E-04
   .221610795498E-04   .228817025779E-04   .236257584697E-04   .243940092036E-04   .251872415355E-04
   .260062678049E-04   .268519267663E-04   .277250844484E-04   .286266350412E-04   .295575018114E-04
   .305186380481E-04   .315110280389E-04   .325356880782E-04   .335936675075E-04   .346860497906E-04
   .358139536224E-04   .369785340756E-04   .381809837824E-04   .394225341568E-04   .407044566554E-04
   .420280640791E-04   .433947119181E-04   .448057997397E-04   .462627726218E-04   .477671226324E-04
   .493203903582E-04   .509241664818E-04   .525800934108E-04   .542898669602E-04   .560552380884E-04
   .578780146908E-04   .597600634512E-04   .617033117532E-04   .637097496545E-04   .657814319244E-04
   .679204801484E-04   .701290849007E-04   .724095079878E-04   .747640847645E-04   .771952265259E-04
   .797054229764E-04   .822972447797E-04   .849733461914E-04   .877364677770E-04   .905894392187E-04
   .935351822132E-04   .965767134639E-04   .997171477702E-04   .102959701217E-03   .106307694471E-03
   .109764556175E-03   .113333826467E-03   .117019160601E-03   .120824332691E-03   .124753239576E-03
   .128809904814E-03   .132998482796E-03   .137323263008E-03   .141788674419E-03   .146399290018E-03
   .151159831498E-03   .156075174091E-03   .161150351561E-03   .166390561361E-03   .171801169950E-03
   .177387718299E-03   .183155927554E-03   .189111704905E-03   .195261149631E-03   .201610559347E-03
   .208166436455E-03   .214935494803E-03   .221924666560E-03   .229141109318E-03   .236592213419E-03
   .244285609530E-03   .252229176450E-03   .260431049188E-03   .268899627288E-03   .277643583438E-03
   .286671872345E-03   .295993739915E-03   .305618732717E-03   .315556707765E-03   .325817842609E-03
   .336412645767E-03   .347351967481E-03   .358647010835E-03   .370309343230E-03   .382350908233E-03
   .394784037808E-03   .407621464954E-03   .420876336741E-03   .434562227786E-03   .448693154150E-03
   .463283587705E-03   .478348470952E-03   .493903232337E-03   .509963802049E-03   .526546628347E-03
   .543668694411E-03   .561347535740E-03   .579601258123E-03   .598448556188E-03   .617908732560E-03
   .638001717641E-03   .658748090032E-03   .680169097625E-03   .702286679378E-03   .725123487800E-03
   .748702912171E-03   .773049102515E-03   .798186994357E-03   .824142334285E-03   .850941706348E-03
   .878612559309E-03   .907183234796E-03   .936682996362E-03   .967142059495E-03   .998591622614E-03
   .103106389907E-02   .106459215018E-02   .109921071938E-02   .113495506744E-02   .117186180887E-02
   .120996874949E-02   .124931492525E-02   .128994064232E-02   .133188751843E-02   .137519852568E-02
   .141991803464E-02   .146609185995E-02   .151376730742E-02   .156299322263E-02   .161382004117E-02
   .166629984052E-02   .172048639360E-02   .177643522412E-02   .183420366375E-02   .189385091111E-02
   .195543809282E-02   .201902832644E-02   .208468678555E-02   .215248076698E-02   .222247976025E-02
   .229475551930E-02   .236938213663E-02   .244643611985E-02   .252599647081E-02   .260814476735E-02
   .269296524779E-02   .278054489820E-02   .287097354261E-02   .296434393629E-02   .306075186204E-02
   .316029622981E-02   .326307917968E-02   .336920618826E-02   .347878617869E-02   .359193163446E-02
   .370875871699E-02   .382938738726E-02   .395394153167E-02   .408254909207E-02   .421534220044E-02
   .435245731808E-02   .449403537969E-02   .464022194249E-02   .479116734053E-02   .494702684437E-02
   .510796082647E-02   .527413493244E-02   .544572025833E-02   .562289353434E-02   .580583731510E-02
   .599474017693E-02   .618979692221E-02   .639120879131E-02   .659918368236E-02   .681393637921E-02
   .703568878795E-02   .726467018239E-02   .750111745894E-02   .774527540127E-02   .799739695532E-02
   .825774351505E-02   .852658521962E-02   .880420126235E-02   .909088021234E-02   .938692034922E-02
   .969263001171E-02   .100083279610E-01   .103343437592E-01   .106710181647E-01   .110187035441E-01
   .113777643030E-01   .117485773353E-01   .121315324939E-01   .125270330825E-01   .129354963704E-01
   .133573541323E-01   .137930532139E-01   .142430561251E-01   .147078416631E-01   .151879055668E-01
   .156837612055E-01   .161959403029E-01   .167249937003E-01   .172714921610E-01   .178360272190E-01
   .184192120749E-01   .190216825437E-01   .196440980563E-01   .202871427214E-01   .209515264494E-01
   .216379861459E-01   .223472869785E-01   .230802237227E-01   .238376221943E-01   .246203407740E-01
   .254292720321E-01   .262653444617E-01   .271295243286E-01   .280228176476E-01   .289462722967E-01
   .299009802784E-01   .308880801423E-01   .319087595819E-01   .329642582191E-01   .340558705940E-01
   .351849493746E-01   .363529088081E-01   .375612284302E-01   .388114570573E-01   .401052170834E-01
   .414442091069E-01   .428302169154E-01   .442651128580E-01   .457508636356E-01   .472895365446E-01
   .488833062098E-01   .505344618452E-01   .522454150855E-01   .540187084310E-01   .558570243547E-01
   .577631951200E-01   .597402133619E-01   .617912434876E-01   .639196339527E-01   .661289304731E-01
   .684228902344E-01   .708054971616E-01   .732809783117E-01   .758538214532E-01   .785287938956E-01
   .813109626261E-01   .842057158122E-01   .872187857178E-01   .903562730747E-01   .936246729400E-01
   .970309020542E-01   .100582327696E+00   .104286798009E+00   .108152673738E+00   .112188861289E+00
   .116404846966E+00   .120810732207E+00   .125417269541E+00   .130235898964E+00   .135278784273E+00
   .140558848856E+00   .146089810266E+00   .151886212764E+00   .157963456869E+00   .164337824718E+00
   .171026499847E+00   .178047579709E+00   .185420078977E+00   .193163921321E+00   .201299916995E+00
   .209849723131E+00   .218835783190E+00   .228281241507E+00   .238209828330E+00   .248645710167E+00
   .259613299650E+00   .271137018495E+00   .283241006531E+00   .295948769146E+00   .309282754992E+00
   .323263855308E+00   .337910815964E+00   .353239553231E+00   .369262364504E+00   .385987025846E+00
   .403415769332E+00   .421544135004E+00   .440359694842E+00   .459840649825E+00   .479954305966E+00
   .500655441542E+00   .521884585659E+00   .543566238171E+00   .565607072893E+00   .587894180267E+00
   .610293422110E+00   .632647989810E+00   .654777278075E+00   .676476208444E+00   .697515159489E+00
   .717640682527E+00   .736577200765E+00   .754029903591E+00   .769689052630E+00   .783235907987E+00
   .794351775779E+00
 ae wavefunction
  -.842096546453E-03  -.868951604377E-03  -.896661022464E-03  -.925251847222E-03  -.954751972864E-03
  -.985190167349E-03  -.101659609915E-02  -.104900036485E-02  -.108243451749E-02  -.111693109576E-02
  -.115252365406E-02  -.118924679333E-02  -.122713619289E-02  -.126622864308E-02  -.130656207889E-02
  -.134817561445E-02  -.139110957860E-02  -.143540555140E-02  -.148110640159E-02  -.152825632521E-02
  -.157690088517E-02  -.162708705194E-02  -.167886324538E-02  -.173227937761E-02  -.178738689714E-02
  -.184423883405E-02  -.190288984645E-02  -.196339626815E-02  -.202581615750E-02  -.209020934760E-02
  -.215663749767E-02  -.222516414584E-02  -.229585476313E-02  -.236877680891E-02  -.244399978760E-02
  -.252159530684E-02  -.260163713697E-02  -.268420127194E-02  -.276936599172E-02  -.285721192598E-02
  -.294782211938E-02  -.304128209818E-02  -.313767993835E-02  -.323710633518E-02  -.333965467426E-02
  -.344542110397E-02  -.355450460944E-02  -.366700708784E-02  -.378303342524E-02  -.390269157479E-02
  -.402609263628E-02  -.415335093713E-02  -.428458411461E-02  -.441991319948E-02  -.455946270075E-02
  -.470336069172E-02  -.485173889711E-02  -.500473278134E-02  -.516248163771E-02  -.532512867857E-02
  -.549282112634E-02  -.566571030515E-02  -.584395173320E-02  -.602770521555E-02  -.621713493729E-02
  -.641240955686E-02  -.661370229945E-02  -.682119105019E-02  -.703505844706E-02  -.725549197316E-02
  -.748268404819E-02  -.771683211891E-02  -.795813874819E-02  -.820681170242E-02  -.846306403705E-02
  -.872711417954E-02  -.899918601006E-02  -.927950893838E-02  -.956831797802E-02  -.986585381551E-02
  -.101723628758E-01  -.104880973819E-01  -.108133154097E-01  -.111482809352E-01  -.114932638758E-01
  -.118485401233E-01  -.122143915685E-01  -.125911061163E-01  -.129789776904E-01  -.133783062274E-01
  -.137893976576E-01  -.142125638733E-01  -.146481226825E-01  -.150963977460E-01  -.155577184987E-01
  -.160324200515E-01  -.165208430737E-01  -.170233336536E-01  -.175402431360E-01  -.180719279351E-01
  -.186187493197E-01  -.191810731705E-01  -.197592697057E-01  -.203537131739E-01  -.209647815109E-01
  -.215928559594E-01  -.222383206471E-01  -.229015621218E-01  -.235829688403E-01  -.242829306074E-01
  -.250018379631E-01  -.257400815131E-01  -.264980512000E-01  -.272761355114E-01  -.280747206205E-01
  -.288941894557E-01  -.297349206949E-01  -.305972876795E-01  -.314816572439E-01  -.323883884561E-01
  -.333178312634E-01  -.342703250387E-01  -.352461970221E-01  -.362457606517E-01  -.372693137787E-01
  -.383171367595E-01  -.393894904205E-01  -.404866138882E-01  -.416087222783E-01  -.427560042379E-01
  -.439286193334E-01  -.451266952786E-01  -.463503249949E-01  -.475995634977E-01  -.488744246023E-01
  -.501748774418E-01  -.515008427912E-01  -.528521891909E-01  -.542287288631E-01  -.556302134151E-01
  -.570563293245E-01  -.585066931987E-01  -.599808468077E-01  -.614782518814E-01  -.629982846710E-01
  -.645402302711E-01  -.661032766986E-01  -.676865087305E-01  -.692889014981E-01  -.709093138415E-01
  -.725464814261E-01  -.741990096263E-01  -.758653661838E-01  -.775438736488E-01  -.792327016154E-01
  -.809298587656E-01  -.826331847379E-01  -.843403418414E-01  -.860488066377E-01  -.877558614189E-01
  -.894585856117E-01  -.911538471440E-01  -.928382938154E-01  -.945083447146E-01  -.961601817383E-01
  -.977897412657E-01  -.993927060548E-01  -.100964497429E+00  -.102500267834E+00  -.103994893843E+00
  -.105442969717E+00  -.106838801610E+00  -.108176402529E+00  -.109449488181E+00  -.110651473823E+00
  -.111775472259E+00  -.112814293136E+00  -.113760443694E+00  -.114606131138E+00  -.115343266820E+00
  -.115963472415E+00  -.116458088286E+00  -.116818184266E+00  -.117034573055E+00  -.117097826473E+00
  -.116998294804E+00  -.116726129465E+00  -.116271309254E+00  -.115623670430E+00  -.114772940871E+00
  -.113708778563E+00  -.112420814672E+00  -.110898701438E+00  -.109132165132E+00  -.107111064273E+00
  -.104825453335E+00  -.102265652102E+00  -.994223208261E-01  -.962865413123E-01  -.928499039986E-01
  -.891046010719E-01  -.850435255927E-01  -.806603765520E-01  -.759497697103E-01  -.709073539949E-01
  -.655299331473E-01  -.598155922189E-01  -.537638284075E-01  -.473756856151E-01  -.406538919796E-01
  -.336029994957E-01  -.262295246919E-01  -.185420891773E-01  -.105515587131E-01  -.227117932534E-02
   .628329114590E-02   .150934577276E-01   .241381709043E-01   .333934187413E-01   .428322300796E-01
   .524245902955E-01   .621373711886E-01   .719342768481E-01   .817758078649E-01   .916192469643E-01
   .101418669882E+00   .111124985924E+00   .120686012926E+00   .130046591119E+00   .139148739660E+00
   .147931858461E+00   .156332976781E+00   .164287049226E+00   .171727299462E+00   .178585611936E+00
   .184792971884E+00   .190279953682E+00   .194977257091E+00   .198816290237E+00   .201729797422E+00
   .203652529091E+00   .204521950587E+00   .204278985582E+00   .202868789339E+00   .200241546201E+00
   .196353284820E+00   .191166703725E+00   .184651998887E+00   .176787683847E+00   .167561391945E+00
   .156970649120E+00   .145023604642E+00   .131739706277E+00   .117150305508E+00   .101299178011E+00
   .842429443744E-01   .660513764379E-01   .468075753943E-01   .266080089842E-01   .556239632755E-02
  -.162065703550E-01  -.385636783555E-01  -.613618346847E-01  -.844429098348E-01  -.107638800568E+00
  -.130772714794E+00  -.153660644892E+00  -.176112928883E+00  -.197935725885E+00  -.218932225717E+00
  -.238903564072E+00  -.257649732057E+00  -.274971050139E+00  -.290670644038E+00  -.304557718370E+00
  -.316450887016E+00  -.326180982642E+00  -.333593295175E+00  -.338549464484E+00  -.340929209832E+00
  -.340631948353E+00  -.337578266914E+00  -.331711175083E+00  -.322997067062E+00  -.311426340406E+00
  -.297013646332E+00  -.279797772011E+00  -.259841172975E+00  -.237229185547E+00  -.212068954580E+00
  -.184488115203E+00  -.154633267038E+00  -.122668279065E+00  -.887724617242E-01  -.531386404197E-01
  -.159711622018E-01   .225161353993E-01   .621019669187E-01   .102559628748E+00   .143658993788E+00
   .185168449872E+00   .226856761996E+00   .268494839488E+00   .309857391013E+00   .350724436723E+00
   .390882603023E+00   .430126404404E+00   .468259376128E+00   .505095053217E+00   .540457800920E+00
   .574183525045E+00   .606120261361E+00   .636128643094E+00   .664082239954E+00   .689867758648E+00
   .713385098891E+00   .734547272931E+00   .753280214148E+00   .769522530502E+00   .783225270813E+00
   .794351775779E+00
 pseudo wavefunction
   .242305289718E-05   .250184453322E-05   .258319827676E-05   .266719744116E-05   .275392804891E-05
   .284347891974E-05   .293594176157E-05   .303141126446E-05   .312998519751E-05   .323176450908E-05
   .333685343008E-05   .344535958078E-05   .355739408096E-05   .367307166377E-05   .379251079319E-05
   .391583378534E-05   .404316693378E-05   .417464063881E-05   .431038954101E-05   .445055265918E-05
   .459527353263E-05   .474470036823E-05   .489898619216E-05   .505828900664E-05   .522277195175E-05
   .539260347245E-05   .556795749113E-05   .574901358572E-05   .593595717356E-05   .612897970132E-05
   .632827884105E-05   .653405869260E-05   .674652999265E-05   .696591033051E-05   .719242437099E-05
   .742630408443E-05   .766778898429E-05   .791712637241E-05   .817457159230E-05   .844038829061E-05
   .871484868717E-05   .899823385369E-05   .929083400170E-05   .959294877970E-05   .990488758002E-05
   .102269698557E-04   .105595254477E-04   .109028949224E-04   .112574299210E-04   .116234935187E-04
   .120014605976E-04   .123917182296E-04   .127946660737E-04   .132107167846E-04   .136402964356E-04
   .140838449551E-04   .145418165768E-04   .150146803050E-04   .155029203952E-04   .160070368496E-04
   .165275459295E-04   .170649806836E-04   .176198914946E-04   .181928466420E-04   .187844328849E-04
   .193952560624E-04   .200259417141E-04   .206771357211E-04   .213495049670E-04   .220437380213E-04
   .227605458442E-04   .235006625151E-04   .242648459843E-04   .250538788490E-04   .258685691552E-04
   .267097512250E-04   .275782865113E-04   .284750644800E-04   .294010035207E-04   .303570518879E-04
   .313441886717E-04   .323634248008E-04   .334158040778E-04   .345024042487E-04   .356243381060E-04
   .367827546292E-04   .379788401613E-04   .392138196239E-04   .404889577722E-04   .418055604900E-04
   .431649761276E-04   .445685968831E-04   .460178602280E-04   .475142503802E-04   .490592998241E-04
   .506545908805E-04   .523017573274E-04   .540024860741E-04   .557585188891E-04   .575716541842E-04
   .594437488576E-04   .613767201959E-04   .633725478387E-04   .654332758068E-04   .675610145964E-04
   .697579433420E-04   .720263120493E-04   .743684439003E-04   .767867376350E-04   .792836700089E-04
   .818617983315E-04   .845237630879E-04   .872722906445E-04   .901101960441E-04   .930403858915E-04
   .960658613333E-04   .991897211347E-04   .102415164857E-03   .105745496138E-03   .109184126080E-03
   .112734576748E-03   .116400484783E-03   .120185605132E-03   .124093814900E-03   .128129117327E-03
   .132295645897E-03   .136597668582E-03   .141039592218E-03   .145625967033E-03   .150361491318E-03
   .155251016252E-03   .160299550881E-03   .165512267270E-03   .170894505813E-03   .176451780723E-03
   .182189785700E-03   .188114399786E-03   .194231693411E-03   .200547934640E-03   .207069595620E-03
   .213803359248E-03   .220756126049E-03   .227935021285E-03   .235347402301E-03   .243000866106E-03
   .250903257216E-03   .259062675740E-03   .267487485752E-03   .276186323926E-03   .285168108464E-03
   .294442048321E-03   .304017652733E-03   .313904741070E-03   .324113453006E-03   .334654259039E-03
   .345537971364E-03   .356775755099E-03   .368379139901E-03   .380360031970E-03   .392730726451E-03
   .405503920267E-03   .418692725379E-03   .432310682502E-03   .446371775283E-03   .460890444974E-03
   .475881605596E-03   .491360659638E-03   .507343514287E-03   .523846598233E-03   .540886879047E-03
   .558481881174E-03   .576649704561E-03   .595409043934E-03   .614779208763E-03   .634780143942E-03
   .655432451205E-03   .676757411317E-03   .698777007068E-03   .721513947108E-03   .744991690658E-03
   .769234473133E-03   .794267332722E-03   .820116137963E-03   .846807616368E-03   .874369384132E-03
   .902829976993E-03   .932218882286E-03   .962566572257E-03   .993904538691E-03   .102626532893E-02
   .105968258336E-02   .109419107436E-02   .112982674701E-02   .116662676129E-02   .120462953626E-02
   .124387479602E-02   .128440361769E-02   .132625848149E-02   .136948332304E-02   .141412358806E-02
   .146022628951E-02   .150784006740E-02   .155701525143E-02   .160780392655E-02   .166026000178E-02
   .171443928227E-02   .177039954510E-02   .182820061873E-02   .188790446664E-02   .194957527526E-02
   .201327954646E-02   .207908619508E-02   .214706665164E-02   .221729497069E-02   .228984794516E-02
   .236480522715E-02   .244224945553E-02   .252226639087E-02   .260494505828E-02   .269037789848E-02
   .277866092790E-02   .286989390830E-02   .296418052661E-02   .306162858554E-02   .316235020594E-02
   .326646204132E-02   .337408550568E-02   .348534701514E-02   .360037824443E-02   .371931639908E-02
   .384230450407E-02   .396949170997E-02   .410103361735E-02   .423709262037E-02   .437783827028E-02
   .452344765968E-02   .467410582795E-02   .483000618866E-02   .499135097888E-02   .515835173067E-02
   .533122976447E-02   .551021670349E-02   .569555500814E-02   .588749852855E-02   .608631307257E-02
   .629227698572E-02   .650568173837E-02   .672683251397E-02   .695604879057E-02   .719366490568E-02
   .744003059224E-02   .769551147033E-02   .796048947599E-02   .823536320411E-02   .852054813772E-02
   .881647672984E-02   .912359829757E-02   .944237867947E-02   .977329959834E-02   .101168576597E-01
   .104735629039E-01   .108439368131E-01   .112285096589E-01   .116278170523E-01   .120423955363E-01
   .124727770328E-01   .129194819204E-01   .133830104871E-01   .138638324535E-01   .143623742169E-01
   .148790034070E-01   .154140102806E-01   .159675854084E-01   .165397930245E-01   .171305393122E-01
   .177395347970E-01   .183662498954E-01   .190098625396E-01   .196691966471E-01   .203426500488E-01
   .210281103104E-01   .217228566958E-01   .224234463180E-01   .231255823169E-01   .238239616809E-01
   .245121001171E-01   .251821311615E-01   .258245765272E-01   .264280845264E-01   .269791332849E-01
   .274616954236E-01   .278568609332E-01   .281424151557E-01   .282923691465E-01   .282764402831E-01
   .280594818662E-01   .276008617040E-01   .268537913662E-01   .257646100362E-01   .242720297874E-01
   .223063527893E-01   .197886755262E-01   .166301007257E-01   .127309844644E-01   .798025394758E-02
   .225484082759E-02  -.458071436120E-02  -.126744190722E-01  -.221866662506E-01  -.332896579663E-01
  -.461663066738E-01  -.610084922883E-01  -.780145418660E-01  -.973857908183E-01  -.119322082402E+00
  -.144016068403E+00  -.171646191723E+00  -.202368264799E+00  -.236305610660E+00  -.273537810436E+00
  -.314084906157E+00
 ae wavefunction
   .491043874248E-04   .506703620927E-04   .522861564006E-04   .539533474963E-04   .556735619599E-04
   .574484773225E-04   .592798236266E-04   .611693850357E-04   .631190014875E-04   .651305703960E-04
   .672060484041E-04   .693474531832E-04   .715568652872E-04   .738364300580E-04   .761883595853E-04
   .786149347192E-04   .811185071443E-04   .837015015066E-04   .863664176018E-04   .891158326242E-04
   .919524034753E-04   .948788691382E-04   .978980531139E-04   .101012865925E-03   .104226307685E-03
   .107541470737E-03   .110961542362E-03   .114489807555E-03   .118129651883E-03   .121884564400E-03
   .125758140654E-03   .129754085759E-03   .133876217548E-03   .138128469800E-03   .142514895558E-03
   .147039670509E-03   .151707096461E-03   .156521604896E-03   .161487760602E-03   .166610265397E-03
   .171893961928E-03   .177343837562E-03   .182965028356E-03   .188762823117E-03   .194742667543E-03
   .200910168450E-03   .207271098083E-03   .213831398516E-03   .220597186126E-03   .227574756158E-03
   .234770587366E-03   .242191346734E-03   .249843894276E-03   .257735287912E-03   .265872788415E-03
   .274263864428E-03   .282916197552E-03   .291837687487E-03   .301036457247E-03   .310520858410E-03
   .320299476437E-03   .330381136015E-03   .340774906446E-03   .351490107066E-03   .362536312679E-03
   .373923359005E-03   .385661348129E-03   .397760653946E-03   .410231927581E-03   .423086102776E-03
   .436334401235E-03   .449988337904E-03   .464059726173E-03   .478560682984E-03   .493503633826E-03
   .508901317586E-03   .524766791266E-03   .541113434479E-03   .557954953787E-03   .575305386757E-03
   .593179105788E-03   .611590821618E-03   .630555586515E-03   .650088797083E-03   .670206196678E-03
   .690923877357E-03   .712258281342E-03   .734226201930E-03   .756844783809E-03   .780131522728E-03
   .804104264441E-03   .828781202888E-03   .854180877528E-03   .880322169758E-03   .907224298339E-03
   .934906813758E-03   .963389591421E-03   .992692823606E-03   .102283701007E-02   .105384294718E-02
   .108573171554E-02   .111852466589E-02   .115224340323E-02   .118690976902E-02   .122254582131E-02
   .125917381268E-02   .129681616581E-02   .133549544653E-02   .137523433415E-02   .141605558903E-02
   .145798201698E-02   .150103643046E-02   .154524160638E-02   .159062024011E-02   .163719489575E-02
   .168498795215E-02   .173402154460E-02   .178431750191E-02   .183589727857E-02   .188878188172E-02
   .194299179270E-02   .199854688282E-02   .205546632300E-02   .211376848711E-02   .217347084855E-02
   .223458986971E-02   .229714088412E-02   .236113797074E-02   .242659382016E-02   .249351959230E-02
   .256192476516E-02   .263181697439E-02   .270320184315E-02   .277608280191E-02   .285046089786E-02
   .292633459354E-02   .300369955416E-02   .308254842347E-02   .316287058770E-02   .324465192717E-02
   .332787455536E-02   .341251654509E-02   .349855164155E-02   .358594896186E-02   .367467268114E-02
   .376468170470E-02   .385592932651E-02   .394836287362E-02   .404192333688E-02   .413654498778E-02
   .423215498181E-02   .432867294848E-02   .442601056861E-02   .452407113917E-02   .462274912654E-02
   .472192970895E-02   .482148830900E-02   .492129011758E-02   .502118961038E-02   .512103005875E-02
   .522064303659E-02   .531984792532E-02   .541845141953E-02   .551624703548E-02   .561301462596E-02
   .570851990433E-02   .580251398165E-02   .589473292092E-02   .598489731276E-02   .607271187753E-02
   .615786509914E-02   .624002889634E-02   .631885833787E-02   .639399140806E-02   .646504883052E-02
   .653163395740E-02   .659333273299E-02   .664971374036E-02   .670032834070E-02   .674471091542E-02
   .678237922161E-02   .681283487203E-02   .683556395133E-02   .685003778057E-02   .685571384263E-02
   .685203688147E-02   .683844018836E-02   .681434708874E-02   .677917264299E-02   .673232557487E-02
   .667321044098E-02   .660123005436E-02   .651578817489E-02   .641629247841E-02   .630215781571E-02
   .617280977126E-02   .602768853023E-02   .586625306057E-02   .568798561498E-02   .549239655513E-02
   .527902949794E-02   .504746678043E-02   .479733523634E-02   .452831227384E-02   .424013223915E-02
   .393259304628E-02   .360556304788E-02   .325898811634E-02   .289289889794E-02   .250741819621E-02
   .210276843287E-02   .167927912719E-02   .123739432608E-02   .777679909229E-03   .300830686398E-03
  -.192322801635E-03  -.700807869653E-03  -.122350375207E-02  -.175913622960E-02  -.230627289646E-02
  -.286331914057E-02  -.342851490990E-02  -.399993235086E-02  -.457547443024E-02  -.515287468870E-02
  -.572969831323E-02  -.630334474754E-02  -.687105207207E-02  -.742990337040E-02  -.797683525188E-02
  -.850864863222E-02  -.902202180128E-02  -.951352575484E-02  -.997964174185E-02  -.104167809734E-01
  -.108213064340E-01  -.111895567222E-01  -.115178718119E-01  -.118026205895E-01  -.120402299756E-01
  -.122272153976E-01  -.123602123448E-01  -.124360086995E-01  -.124515775057E-01  -.124041098045E-01
  -.122910471306E-01  -.121101132319E-01  -.118593445440E-01  -.115371189177E-01  -.111421820700E-01
  -.106736712085E-01  -.101311352544E-01  -.951455108674E-02  -.882433523017E-02  -.806135043484E-02
  -.722690663935E-02  -.632275588814E-02  -.535108088026E-02  -.431447696531E-02  -.321592755207E-02
  -.205877303084E-02  -.846673385157E-03   .416435356694E-03   .172639080273E-02   .307886005740E-02
   .446940142392E-02   .589353004966E-02   .734678224189E-02   .882476865720E-02   .103232042653E-01
   .118379084046E-01   .133647841050E-01   .148998041027E-01   .164390307975E-01   .179786672108E-01
   .195151031897E-01   .210449226091E-01   .225648635043E-01   .240717406559E-01   .255623408378E-01
   .270332951295E-01   .284809278956E-01   .299010794380E-01   .312888986337E-01   .326386024553E-01
   .339432005422E-01   .351941845121E-01   .363811829483E-01   .374915840348E-01   .385101284963E-01
   .394184761662E-01   .401947499279E-01   .408130613012E-01   .412430224308E-01   .414492497144E-01
   .413908648590E-01   .410209996727E-01   .402863116417E-01   .391265178351E-01   .374739557518E-01
   .352531805596E-01   .323806094408E-01   .287642253077E-01   .243033539331E-01   .188885295984E-01
   .124014658230E-01   .471516756458E-02  -.430580821124E-02  -.148049133878E-01  -.269329650956E-01
  -.408472637341E-01  -.567104396756E-01  -.746889906288E-01  -.949514713768E-01  -.117666284567E+00
  -.142999024099E+00  -.171109317689E+00  -.202147112344E+00  -.236248365839E+00  -.273530113427E+00
  -.314084906157E+00
 End of Dataset
 PAW_PBE N 08Apr2002
 5.00000000000000000
 parameters from PSCTR are:
   VRHFIN =N: s2p3
   LEXCH  = PE
   EATOM  =   264.5486 eV,   19.4438 Ry

   TITEL  = PAW_PBE N 08Apr2002
   LULTRA =        F    use ultrasoft PP ?
   IUNSCR =        0    unscreen: 0-lin 1-nonlin 2-no
   RPACOR =     .000    partial core radius
   POMASS =   14.001; ZVAL   =    5.000    mass and valenz
   RCORE  =    1.500    outmost cutoff radius
   RWIGS  =    1.400; RWIGS  =     .741    wigner-seitz radius (au A)
   ENMAX  =  400.000; ENMIN  =  300.000 eV
   ICORE  =        2    local potential
   LCOR   =        T    correct aug charges
   LPAW   =        T    paw PP
   EAUG   =  627.112
   DEXC   =     .000
   RMAX   =    2.247    core radius for proj-oper
   RAUG   =    1.300    factor for augmentation sphere
   RDEP   =    1.514    radius for radial grids
   QCUT   =   -5.562; QGAM   =   11.124    optimization parameters
 
   Description
     l     E      TYP  RCUT    TYP  RCUT
     0   .000     23  1.200
     0   .000     23  1.200
     1   .000     23  1.500
     1   .700     23  1.500
     2   .000      7  1.500
   Error from kinetic energy argument (eV)
   NDATA  =      100
   STEP   =   20.000   1.050
  106.      104.      102.      99.8      98.5      95.8      93.0      91.6
  88.9      86.1      84.8      82.0      79.3      76.6      73.9      71.2
  68.6      66.1      63.5      59.9      57.5      55.1      51.7      49.5
  47.4      44.3      41.4      39.5      36.8      34.2      31.7      29.4
  27.2      25.1      23.2      21.4      19.1      17.5      15.6      14.2
  12.6      11.1      9.72      8.50      7.41      6.43      5.55      4.60
  3.93      3.21      2.60      2.18      1.74      1.37      1.02      .784
  .597      .422      .293      .199      .133      .872E-01  .567E-01  .347E-01
  .238E-01  .169E-01  .137E-01  .123E-01  .116E-01  .109E-01  .100E-01  .875E-02
  .733E-02  .589E-02  .445E-02  .343E-02  .259E-02  .207E-02  .177E-02  .163E-02
  .153E-02  .142E-02  .127E-02  .106E-02  .841E-03  .647E-03  .505E-03  .416E-03
  .381E-03  .372E-03  .362E-03  .337E-03  .285E-03  .227E-03  .173E-03  .137E-03
  .121E-03  .118E-03  .117E-03  .109E-03
END of PSCTR-controll parameters
 local part
 124.721915246208937
   .21525339E+02   .21525656E+02   .21522032E+02   .21515994E+02   .21507544E+02
   .21496684E+02   .21483417E+02   .21467744E+02   .21449665E+02   .21429180E+02
   .21406285E+02   .21380973E+02   .21353237E+02   .21323066E+02   .21290447E+02
   .21255363E+02   .21217798E+02   .21177730E+02   .21135137E+02   .21089993E+02
   .21042269E+02   .20991935E+02   .20938955E+02   .20883291E+02   .20824902E+02
   .20763740E+02   .20699757E+02   .20632897E+02   .20563104E+02   .20490316E+02
   .20414467E+02   .20335489E+02   .20253311E+02   .20167858E+02   .20079052E+02
   .19986815E+02   .19891065E+02   .19791718E+02   .19688691E+02   .19581898E+02
   .19471256E+02   .19356678E+02   .19238082E+02   .19115386E+02   .18988510E+02
   .18857379E+02   .18721920E+02   .18582064E+02   .18437751E+02   .18288922E+02
   .18135529E+02   .17977528E+02   .17814885E+02   .17647574E+02   .17475579E+02
   .17298894E+02   .17117523E+02   .16931482E+02   .16740800E+02   .16545516E+02
   .16345683E+02   .16141367E+02   .15932649E+02   .15719621E+02   .15502391E+02
   .15281081E+02   .15055825E+02   .14826774E+02   .14594092E+02   .14357955E+02
   .14118556E+02   .13876099E+02   .13630801E+02   .13382893E+02   .13132616E+02
   .12880223E+02   .12625979E+02   .12370157E+02   .12113038E+02   .11854915E+02
   .11596085E+02   .11336851E+02   .11077523E+02   .10818414E+02   .10559840E+02
   .10302120E+02   .10045571E+02   .97905115E+01   .95372582E+01   .92861240E+01
   .90374180E+01   .87914439E+01   .85484988E+01   .83088720E+01   .80728442E+01
   .78406858E+01   .76126566E+01   .73890041E+01   .71699631E+01   .69557544E+01
   .67465841E+01   .65426430E+01   .63441057E+01   .61511301E+01   .59638566E+01
   .57824083E+01   .56068897E+01   .54373873E+01   .52739689E+01   .51166837E+01
   .49655622E+01   .48206165E+01   .46818399E+01   .45492079E+01   .44226782E+01
   .43021908E+01   .41876690E+01   .40790200E+01   .39761350E+01   .38788905E+01
   .37871488E+01   .37007590E+01   .36195579E+01   .35433708E+01   .34720127E+01
   .34052892E+01   .33429977E+01   .32849282E+01   .32308648E+01   .31805866E+01
   .31338688E+01   .30904841E+01   .30502033E+01   .30127969E+01   .29780362E+01
   .29456937E+01   .29155452E+01   .28873698E+01   .28609512E+01   .28360790E+01
   .28125490E+01   .27901639E+01   .27687349E+01   .27480813E+01   .27280320E+01
   .27084252E+01   .26891097E+01   .26699448E+01   .26508007E+01   .26315588E+01
   .26121120E+01   .25923646E+01   .25722323E+01   .25516426E+01   .25305342E+01
   .25088570E+01   .24865720E+01   .24636508E+01   .24400754E+01   .24158380E+01
   .23909399E+01   .23653919E+01   .23392129E+01   .23124300E+01   .22850775E+01
   .22571964E+01   .22288337E+01   .22000418E+01   .21708779E+01   .21414029E+01
   .21116813E+01   .20817801E+01   .20517682E+01   .20217158E+01   .19916937E+01
   .19617727E+01   .19320229E+01   .19025133E+01   .18733110E+01   .18444807E+01
   .18160846E+01   .17881814E+01   .17608263E+01   .17340705E+01   .17079608E+01
   .16825394E+01   .16578438E+01   .16339065E+01   .16107548E+01   .15884108E+01
   .15668912E+01   .15462077E+01   .15263665E+01   .15073689E+01   .14892109E+01
   .14718839E+01   .14553744E+01   .14396646E+01   .14247325E+01   .14105520E+01
   .13970938E+01   .13843248E+01   .13722094E+01   .13607093E+01   .13497838E+01
   .13393906E+01   .13294859E+01   .13200246E+01   .13109613E+01   .13022499E+01
   .12938446E+01   .12856999E+01   .12777710E+01   .12700145E+01   .12623879E+01
   .12548507E+01   .12473643E+01   .12398923E+01   .12324005E+01   .12248576E+01
   .12172348E+01   .12095065E+01   .12016498E+01   .11936452E+01   .11854762E+01
   .11771294E+01   .11685948E+01   .11598655E+01   .11509376E+01   .11418104E+01
   .11324859E+01   .11229692E+01   .11132678E+01   .11033919E+01   .10933538E+01
   .10831683E+01   .10728517E+01   .10624224E+01   .10519000E+01   .10413055E+01
   .10306609E+01   .10199890E+01   .10093131E+01   .99865680E+00   .98804386E+00
   .97749779E+00   .96704175E+00   .95669834E+00   .94648935E+00   .93643563E+00
   .92655684E+00   .91687140E+00   .90739622E+00   .89814668E+00   .88913645E+00
   .88037744E+00   .87187970E+00   .86365138E+00   .85569867E+00   .84802583E+00
   .84063513E+00   .83352693E+00   .82669967E+00   .82014993E+00   .81387250E+00
   .80786048E+00   .80210534E+00   .79659704E+00   .79132416E+00   .78627401E+00
   .78143278E+00   .77678567E+00   .77231706E+00   .76801063E+00   .76384956E+00
   .75981666E+00   .75589452E+00   .75206570E+00   .74831284E+00   .74461884E+00
   .74096699E+00   .73734110E+00   .73372564E+00   .73010585E+00   .72646786E+00
   .72279880E+00   .71908686E+00   .71532140E+00   .71149297E+00   .70759344E+00
   .70361595E+00   .69955501E+00   .69540648E+00   .69116755E+00   .68683680E+00
   .68241411E+00   .67790064E+00   .67329883E+00   .66861230E+00   .66384579E+00
   .65900510E+00   .65409703E+00   .64912922E+00   .64411015E+00   .63904896E+00
   .63395539E+00   .62883965E+00   .62371232E+00   .61858424E+00   .61346641E+00
   .60836984E+00   .60330550E+00   .59828418E+00   .59331638E+00   .58841224E+00
   .58358145E+00   .57883312E+00   .57417577E+00   .56961719E+00   .56516443E+00
   .56082372E+00   .55660042E+00   .55249900E+00   .54852299E+00   .54467499E+00
   .54095665E+00   .53736863E+00   .53391070E+00   .53058165E+00   .52737938E+00
   .52430093E+00   .52134251E+00   .51849951E+00   .51576664E+00   .51313789E+00
   .51060670E+00   .50816593E+00   .50580801E+00   .50352496E+00   .50130852E+00
   .49915019E+00   .49704134E+00   .49497326E+00   .49293726E+00   .49092475E+00
   .48892731E+00   .48693675E+00   .48494521E+00   .48294519E+00   .48092966E+00
   .47889205E+00   .47682637E+00   .47472720E+00   .47258976E+00   .47040992E+00
   .46818424E+00   .46590999E+00   .46358515E+00   .46120841E+00   .45877919E+00
   .45629760E+00   .45376445E+00   .45118123E+00   .44855007E+00   .44587369E+00
   .44315541E+00   .44039907E+00   .43760898E+00   .43478991E+00   .43194697E+00
   .42908561E+00   .42621155E+00   .42333070E+00   .42044910E+00   .41757289E+00
   .41470822E+00   .41186120E+00   .40903785E+00   .40624400E+00   .40348532E+00
   .40076717E+00   .39809463E+00   .39547240E+00   .39290481E+00   .39039573E+00
   .38794858E+00   .38556629E+00   .38325127E+00   .38100542E+00   .37883007E+00
   .37672604E+00   .37469358E+00   .37273241E+00   .37084172E+00   .36902018E+00
   .36726597E+00   .36557677E+00   .36394984E+00   .36238201E+00   .36086973E+00
   .35940913E+00   .35799601E+00   .35662593E+00   .35529423E+00   .35399608E+00
   .35272654E+00   .35148058E+00   .35025318E+00   .34903928E+00   .34783395E+00
   .34663234E+00   .34542975E+00   .34422169E+00   .34300390E+00   .34177240E+00
   .34052349E+00   .33925382E+00   .33796042E+00   .33664065E+00   .33529231E+00
   .33391360E+00   .33250314E+00   .33105997E+00   .32958359E+00   .32807388E+00
   .32653120E+00   .32495627E+00   .32335023E+00   .32171462E+00   .32005131E+00
   .31836251E+00   .31665075E+00   .31491884E+00   .31316983E+00   .31140699E+00
   .30963376E+00   .30785373E+00   .30607060E+00   .30428812E+00   .30251011E+00
   .30074035E+00   .29898258E+00   .29724048E+00   .29551761E+00   .29381738E+00
   .29214302E+00   .29049756E+00   .28888379E+00   .28730425E+00   .28576120E+00
   .28425659E+00   .28279207E+00   .28136897E+00   .27998827E+00   .27865064E+00
   .27735638E+00   .27610546E+00   .27489752E+00   .27373187E+00   .27260749E+00
   .27152307E+00   .27047699E+00   .26946740E+00   .26849215E+00   .26754889E+00
   .26663508E+00   .26574798E+00   .26488473E+00   .26404232E+00   .26321767E+00
   .26240765E+00   .26160908E+00   .26081879E+00   .26003364E+00   .25925056E+00
   .25846655E+00   .25767874E+00   .25688439E+00   .25608092E+00   .25526595E+00
   .25443730E+00   .25359302E+00   .25273139E+00   .25185093E+00   .25095045E+00
   .25002901E+00   .24908594E+00   .24812086E+00   .24713366E+00   .24612449E+00
   .24509379E+00   .24404226E+00   .24297082E+00   .24188065E+00   .24077315E+00
   .23964992E+00   .23851276E+00   .23736361E+00   .23620457E+00   .23503786E+00
   .23386582E+00   .23269082E+00   .23151532E+00   .23034179E+00   .22917272E+00
   .22801054E+00   .22685768E+00   .22571647E+00   .22458917E+00   .22347790E+00
   .22238468E+00   .22131136E+00   .22025964E+00   .21923101E+00   .21822680E+00
   .21724813E+00   .21629588E+00   .21537076E+00   .21447322E+00   .21360349E+00
   .21276159E+00   .21194731E+00   .21116022E+00   .21039967E+00   .20966484E+00
   .20895467E+00   .20826795E+00   .20760330E+00   .20695917E+00   .20633390E+00
   .20572570E+00   .20513267E+00   .20455284E+00   .20398419E+00   .20342463E+00
   .20287207E+00   .20232442E+00   .20177959E+00   .20123555E+00   .20069032E+00
   .20014199E+00   .19958874E+00   .19902888E+00   .19846082E+00   .19788312E+00
   .19729450E+00   .19669381E+00   .19608010E+00   .19545258E+00   .19481064E+00
   .19415385E+00   .19348199E+00   .19279499E+00   .19209300E+00   .19137633E+00
   .19064547E+00   .18990108E+00   .18914397E+00   .18837513E+00   .18759564E+00
   .18680675E+00   .18600979E+00   .18520621E+00   .18439754E+00   .18358535E+00
   .18277129E+00   .18195704E+00   .18114427E+00   .18033468E+00   .17952994E+00
   .17873169E+00   .17794152E+00   .17716096E+00   .17639144E+00   .17563432E+00
   .17489086E+00   .17416218E+00   .17344930E+00   .17275308E+00   .17207425E+00
   .17141341E+00   .17077099E+00   .17014726E+00   .16954235E+00   .16895623E+00
   .16838871E+00   .16783946E+00   .16730799E+00   .16679368E+00   .16629577E+00
   .16581339E+00   .16534554E+00   .16489113E+00   .16444896E+00   .16401778E+00
   .16359624E+00   .16318296E+00   .16277652E+00   .16237545E+00   .16197831E+00
   .16158362E+00   .16118995E+00   .16079588E+00   .16040004E+00   .16000114E+00
   .15959791E+00   .15918921E+00   .15877397E+00   .15835121E+00   .15792007E+00
   .15747981E+00   .15702980E+00   .15656955E+00   .15609869E+00   .15561698E+00
   .15512431E+00   .15462071E+00   .15410635E+00   .15358150E+00   .15304658E+00
   .15250212E+00   .15194876E+00   .15138724E+00   .15081841E+00   .15024318E+00
   .14966258E+00   .14907765E+00   .14848954E+00   .14789939E+00   .14730842E+00
   .14671785E+00   .14612888E+00   .14554275E+00   .14496066E+00   .14438378E+00
   .14381325E+00   .14325013E+00   .14269547E+00   .14215020E+00   .14161519E+00
   .14109123E+00   .14057900E+00   .14007909E+00   .13959198E+00   .13911804E+00
   .13865753E+00   .13821060E+00   .13777728E+00   .13735749E+00   .13695102E+00
   .13655759E+00   .13617677E+00   .13580805E+00   .13545084E+00   .13510443E+00
   .13476804E+00   .13444084E+00   .13412190E+00   .13381026E+00   .13350490E+00
   .13320479E+00   .13290884E+00   .13261597E+00   .13232509E+00   .13203512E+00
   .13174499E+00   .13145366E+00   .13116014E+00   .13086347E+00   .13056275E+00
   .13025715E+00   .12994591E+00   .12962835E+00   .12930385E+00   .12897193E+00
   .12863214E+00   .12828419E+00   .12792783E+00   .12756295E+00   .12718952E+00
   .12680763E+00   .12641744E+00   .12601923E+00   .12561336E+00   .12520028E+00
   .12478053E+00   .12435471E+00   .12392350E+00   .12348764E+00   .12304794E+00
   .12260523E+00   .12216039E+00   .12171434E+00   .12126801E+00   .12082233E+00
   .12037825E+00   .11993670E+00   .11949860E+00   .11906484E+00   .11863628E+00
   .11821374E+00   .11779797E+00   .11738968E+00   .11698952E+00   .11659805E+00
   .11621578E+00   .11584313E+00   .11548042E+00   .11512791E+00   .11478576E+00
   .11445406E+00   .11413278E+00   .11382182E+00   .11352100E+00   .11323004E+00
   .11294859E+00   .11267623E+00   .11241245E+00   .11215668E+00   .11190830E+00
   .11166662E+00   .11143091E+00   .11120040E+00   .11097429E+00   .11075175E+00
   .11053195E+00   .11031402E+00   .11009712E+00   .10988040E+00   .10966304E+00
   .10944423E+00   .10922320E+00   .10899923E+00   .10877162E+00   .10853974E+00
   .10830301E+00   .10806092E+00   .10781303E+00   .10755896E+00   .10729840E+00
   .10703113E+00   .10675700E+00   .10647594E+00   .10618796E+00   .10589315E+00
   .10559167E+00   .10528376E+00   .10496972E+00   .10464995E+00   .10432487E+00
   .10399498E+00   .10366085E+00   .10332307E+00   .10298229E+00   .10263917E+00
   .10229443E+00   .10194880E+00   .10160301E+00   .10125781E+00   .10091395E+00
   .10057217E+00   .10023318E+00   .99897697E-01   .99566386E-01   .99239885E-01
   .98918791E-01   .98603653E-01   .98294967E-01   .97993177E-01   .97698662E-01
   .97411742E-01   .97132669E-01   .96861627E-01   .96598733E-01   .96344031E-01
   .96097497E-01   .95859038E-01   .95628491E-01   .95405629E-01   .95190160E-01
   .94981733E-01   .94779940E-01   .94584321E-01   .94394371E-01   .94209540E-01
   .94029243E-01   .93852866E-01   .93679768E-01   .93509292E-01   .93340767E-01
   .93173518E-01   .93006871E-01   .92840159E-01   .92672731E-01   .92503954E-01
   .92333221E-01   .92159960E-01   .91983632E-01   .91803744E-01   .91619847E-01
   .91431542E-01   .91238485E-01   .91040388E-01   .90837022E-01   .90628218E-01
   .90413869E-01   .90193931E-01   .89968422E-01   .89737421E-01   .89501068E-01
   .89259562E-01   .89013159E-01   .88762166E-01   .88506941E-01   .88247890E-01
   .87985457E-01   .87720125E-01   .87452409E-01   .87182851E-01   .86912012E-01
   .86640472E-01   .86368819E-01   .86097646E-01   .85827545E-01   .85559100E-01
   .85292882E-01   .85029445E-01   .84769316E-01   .84512997E-01   .84260954E-01
   .84013616E-01   .83771371E-01   .83534560E-01   .83303480E-01   .83078373E-01
   .82859430E-01   .82646790E-01   .82440535E-01   .82240691E-01   .82047230E-01
   .81860069E-01   .81679071E-01   .81504046E-01   .81334755E-01   .81170913E-01
   .81012190E-01   .80858214E-01   .80708579E-01   .80562846E-01   .80420547E-01
   .80281192E-01   .80144271E-01   .80009262E-01   .79875635E-01   .79742855E-01
   .79610390E-01   .79477716E-01   .79344319E-01   .79209704E-01   .79073398E-01
   .78934952E-01   .78793950E-01   .78650009E-01   .78502783E-01   .78351967E-01
   .78197300E-01   .78038565E-01   .77875592E-01   .77708262E-01   .77536501E-01
   .77360287E-01   .77179649E-01   .76994661E-01   .76805448E-01   .76612179E-01
   .76415069E-01   .76214373E-01   .76010386E-01   .75803438E-01   .75593891E-01
   .75382136E-01   .75168589E-01   .74953683E-01   .74737870E-01   .74521611E-01
   .74305377E-01   .74089637E-01   .73874860E-01   .73661508E-01   .73450030E-01
   .73240859E-01   .73034410E-01   .72831071E-01   .72631205E-01   .72435141E-01
   .72243177E-01   .72055572E-01   .71872547E-01   .71694281E-01   .71520913E-01
   .71352537E-01   .71189203E-01   .71030917E-01   .70877640E-01   .70729290E-01
   .70585743E-01   .70446834E-01   .70312357E-01   .70182071E-01   .70055701E-01
   .69932940E-01   .69813452E-01   .69696878E-01   .69582837E-01   .69470931E-01
   .69360748E-01   .69251869E-01   .69143867E-01   .69036316E-01   .68928792E-01
   .68820879E-01   .68712171E-01   .68602280E-01   .68490835E-01   .68377486E-01
   .68261912E-01   .68143818E-01   .68022941E-01   .67899052E-01   .67771958E-01
   .67641500E-01   .67507561E-01   .67370062E-01   .67228962E-01   .67084264E-01
   .66936007E-01   .66784270E-01   .66629171E-01   .66470865E-01   .66309540E-01
   .66145418E-01   .65978751E-01   .65809819E-01   .65638926E-01   .65466397E-01
   .65292577E-01   .65117825E-01   .64942511E-01   .64767012E-01   .64591710E-01
   .64416986E-01   .64243218E-01   .64070775E-01   .63900018E-01   .63731291E-01
   .63564920E-01   .63401212E-01   .63240448E-01   .63082884E-01   .62928747E-01
   .62778232E-01   .62631504E-01   .62488693E-01   .62349891E-01   .62215160E-01
   .62084521E-01   .61957962E-01   .61835432E-01   .61716848E-01   .61602091E-01
   .61491009E-01   .61383419E-01   .61279111E-01   .61177844E-01   .61079355E-01
   .60983360E-01   .60889555E-01   .60797620E-01   .60707223E-01   .60618021E-01
   .60529668E-01   .60441813E-01   .60354105E-01   .60266201E-01   .60177762E-01
   .60088461E-01   .59997984E-01   .59906036E-01   .59812340E-01   .59716643E-01
   .59618713E-01   .59518349E-01   .59415376E-01   .59309648E-01   .59201053E-01
   .59089509E-01   .58974967E-01   .58857410E-01   .58736857E-01   .58613357E-01
 gradient corrections used for XC
 5
 atomic pseudo charge-density
   .50000000E+01   .49905920E+01   .49625297E+01   .49162908E+01   .48526485E+01
   .47726391E+01   .46775203E+01   .45687233E+01   .44478032E+01   .43163885E+01
   .41761349E+01   .40286837E+01   .38756263E+01   .37184763E+01   .35586481E+01
   .33974423E+01   .32360365E+01   .30754820E+01   .29167034E+01   .27605022E+01
   .26075624E+01   .24584576E+01   .23136596E+01   .21735467E+01   .20384129E+01
   .19084767E+01   .17838898E+01   .16647446E+01   .15510824E+01   .14428999E+01
   .13401557E+01   .12427762E+01   .11506608E+01   .10636865E+01   .98171194E+00
   .90458151E+00   .83212827E+00   .76417698E+00   .70054656E+00   .64105227E+00
   .58550763E+00   .53372598E+00   .48552186E+00   .44071220E+00   .39911723E+00
   .36056131E+00   .32487354E+00   .29188830E+00   .26144558E+00   .23339135E+00
   .20757767E+00   .18386290E+00   .16211167E+00   .14219496E+00   .12399000E+00
   .10738022E+00   .92255114E-01   .78510091E-01   .66046338E-01   .54770616E-01
   .44595079E-01   .35437065E-01   .27218895E-01   .19867655E-01   .13314990E-01
   .74968898E-02   .23534788E-02  -.21711896E-02  -.61293344E-02  -.95696441E-02
  -.12537468E-01  -.15074999E-01  -.17221454E-01  -.19013244E-01  -.20484138E-01
  -.21665420E-01  -.22586039E-01  -.23272752E-01  -.23750261E-01  -.24041341E-01
  -.24166965E-01  -.24146416E-01  -.23997402E-01  -.23736157E-01  -.23377542E-01
  -.22935135E-01  -.22421320E-01  -.21847372E-01  -.21223529E-01  -.20559071E-01
  -.19862388E-01  -.19141041E-01  -.18401826E-01  -.17650830E-01  -.16893487E-01
  -.16134623E-01  -.15378508E-01  -.14628898E-01  -.13889078E-01  -.13161896E-01
  -.12449805E-01  -.11754893E-01  -.11078916E-01  -.10423328E-01  -.97893049E-02
  -.91777749E-02  -.85894391E-02  -.80247948E-02  -.74841557E-02  -.69676714E-02
  -.64753449E-02  -.60070492E-02  -.55625423E-02  -.51414814E-02  -.47434360E-02
  -.43679000E-02  -.40143022E-02  -.36820170E-02  -.33703735E-02  -.30786639E-02
  -.28061514E-02  -.25520773E-02  -.23156672E-02  -.20961372E-02  -.18926989E-02
  -.17045640E-02  -.15309487E-02  -.13710774E-02  -.12241863E-02  -.10895255E-02
  -.96636251E-03  -.85398380E-03  -.75169686E-03  -.65883175E-03  -.57474238E-03
  -.49880750E-03  -.43043156E-03  -.36904518E-03  -.31410564E-03  -.26509696E-03
  -.22153000E-03  -.18294233E-03  -.14889794E-03  -.11898693E-03  -.92824951E-04
  -.70052694E-04  -.50335202E-04  -.33361152E-04  -.18842059E-04  -.65114415E-05
   .38760630E-05   .12545615E-04   .19703113E-04   .25536152E-04   .30214996E-04
   .33893552E-04   .36710342E-04   .38789474E-04   .40241596E-04   .41164839E-04
   .41645733E-04   .41760111E-04   .41573973E-04   .41144334E-04   .40520031E-04
   .39742502E-04   .38846523E-04   .37860918E-04   .36809223E-04   .35710316E-04
   .34579005E-04   .33426582E-04   .32261331E-04   .31089003E-04   .29913252E-04
   .28736026E-04   .27557934E-04   .26378567E-04   .25196786E-04   .24010980E-04
   .22819290E-04   .21619803E-04   .20410715E-04   .19190469E-04   .17957865E-04
   .16712152E-04   .15453087E-04   .14180986E-04   .12896746E-04   .11601858E-04
   .10298397E-04   .89890087E-05   .76768723E-05   .63656651E-05   .50595101E-05
   .37629206E-05   .24807380E-05   .12180659E-05  -.19798875E-07  -.12274369E-05
  -.23993774E-05  -.35301683E-05  -.46144459E-05  -.56470012E-05  -.66228435E-05
  -.75372600E-05  -.83858715E-05  -.91646822E-05  -.98701252E-05  -.10499102E-04
  -.11049014E-04  -.11517794E-04  -.11903922E-04  -.12206444E-04  -.12424981E-04
  -.12559728E-04  -.12611453E-04  -.12581489E-04  -.12471719E-04  -.12284554E-04
  -.12022915E-04  -.11690196E-04  -.11290240E-04  -.10827295E-04  -.10305982E-04
  -.97312494E-05  -.91083283E-05  -.84426897E-05  -.77399963E-05  -.70060550E-05
  -.62467693E-05  -.54680919E-05  -.46759773E-05  -.38763362E-05  -.30749904E-05
  -.22776305E-05  -.14897744E-05  -.71672956E-06   .36443421E-07   .76496339E-06
   .14643586E-05   .21304932E-05   .27595907E-05   .33482533E-05   .38934783E-05
   .43926705E-05   .48436512E-05   .52446635E-05   .55943743E-05   .58918723E-05
   .61366633E-05   .63286623E-05   .64681816E-05   .65559178E-05   .65929340E-05
   .65806415E-05   .65207784E-05   .64153856E-05   .62667826E-05   .60775406E-05
   .58504548E-05   .55885158E-05   .52948804E-05   .49728414E-05   .46257983E-05
   .42572269E-05   .38706503E-05   .34696093E-05   .30576348E-05   .26382202E-05
   .22147954E-05   .17907023E-05   .13691712E-05   .95329963E-06   .54603217E-06
   .15014276E-06  -.23178140E-06  -.59735377E-06  -.94440039E-06  -.12709696E-05
  -.15753399E-05  -.18560253E-05  -.21117787E-05  -.23415937E-05  -.25447040E-05
  -.27205803E-05  -.28689269E-05  -.29896750E-05  -.30829753E-05  -.31491886E-05
  -.31888754E-05  -.32027842E-05  -.31918380E-05  -.31571211E-05  -.30998637E-05
  -.30214269E-05  -.29232866E-05  -.28070174E-05  -.26742757E-05  -.25267834E-05
  -.23663114E-05  -.21946629E-05  -.20136578E-05  -.18251170E-05  -.16308473E-05
  -.14326271E-05  -.12321932E-05  -.10312275E-05  -.83134591E-06  -.63408706E-06
  -.44090291E-06  -.25315007E-06  -.72082309E-07   .10115571E-06   .26553358E-06
   .42013911E-06   .56418111E-06   .69699107E-06   .81802369E-06   .92685633E-06
   .10231874E-05   .11068339E-05   .11777277E-05   .12359116E-05   .12815336E-05
   .13148415E-05   .13361764E-05   .13459651E-05   .13447133E-05   .13329972E-05
   .13114554E-05   .12807803E-05   .12417099E-05   .11950187E-05   .11415093E-05
   .10820039E-05   .10173362E-05   .94834252E-06   .87585502E-06   .80069361E-06
   .72365918E-06   .64552712E-06   .56704124E-06   .48890838E-06   .41179350E-06
   .33631544E-06   .26304326E-06   .19249323E-06   .12512644E-06   .61347112E-07
   .15013959E-08  -.54123064E-07  -.10529706E-06  -.15184918E-06  -.19366454E-06
  -.23068312E-06  -.26289758E-06  -.29035056E-06  -.31313174E-06  -.33137439E-06
  -.34525179E-06  -.35497319E-06  -.36077980E-06  -.36294038E-06  -.36174694E-06
  -.35751024E-06  -.35055532E-06  -.34121710E-06  -.32983599E-06  -.31675370E-06
  -.30230915E-06  -.28683460E-06  -.27065203E-06  -.25406973E-06  -.23737925E-06
  -.22085261E-06  -.20473984E-06  -.18926690E-06  -.17463392E-06  -.16101384E-06
  -.14855140E-06  -.13736248E-06  -.12753383E-06  -.11912313E-06  -.11215946E-06
  -.10664396E-06  -.10255098E-06  -.99829372E-07  -.98404126E-07  -.98178232E-07
  -.99034758E-07  -.10083911E-06  -.10344147E-06  -.10667933E-06  -.11038012E-06
  -.11436396E-06  -.11844637E-06  -.12244103E-06  -.12616246E-06  -.12942871E-06
  -.13206388E-06  -.13390062E-06  -.13478239E-06  -.13456562E-06  -.13312169E-06
  -.13033864E-06  -.12612274E-06  -.12039978E-06  -.11311612E-06  -.10423951E-06
  -.93759592E-07  -.81688225E-07  -.68059479E-07  -.52929400E-07  -.36375516E-07
  -.18496093E-07   .59083727E-09   .20748680E-07   .41823686E-07   .63646550E-07
   .86034184E-07   .10879164E-06   .13171419E-06   .15458944E-06   .17719964E-06
   .19932399E-06   .22074095E-06   .24123065E-06   .26057721E-06   .27857110E-06
   .29501134E-06   .30970775E-06   .32248293E-06   .33317430E-06   .34163585E-06
   .34773977E-06   .35137799E-06   .35246337E-06   .35093080E-06   .34673811E-06
   .33986661E-06   .33032159E-06   .31813243E-06   .30335259E-06   .28605933E-06
   .26635316E-06   .24435712E-06   .22021587E-06   .19409449E-06   .16617715E-06
   .13666557E-06   .10577734E-06   .73744067E-07   .40809388E-07   .72268839E-08
  -.26742112E-07  -.60830778E-07  -.94769116E-07  -.12828631E-06  -.16111307E-06
  -.19298401E-06  -.22363992E-06  -.25283007E-06  -.28031439E-06  -.30586555E-06
  -.32927098E-06  -.35033470E-06  -.36887904E-06  -.38474620E-06  -.39779963E-06
  -.40792521E-06  -.41503227E-06  -.41905440E-06  -.41994998E-06  -.41770262E-06
  -.41232129E-06  -.40384026E-06  -.39231881E-06  -.37784078E-06  -.36051386E-06
  -.34046865E-06  -.31785766E-06  -.29285395E-06  -.26564975E-06  -.23645483E-06
  -.20549476E-06  -.17300905E-06  -.13924918E-06  -.10447650E-06  -.68960099E-07
  -.32974573E-07   .32021886E-08   .39291286E-07   .75015070E-07   .11009939E-06
   .14427579E-06   .17728369E-06   .20887241E-06   .23880320E-06   .26685110E-06
   .29280672E-06   .31647781E-06   .33769079E-06   .35629200E-06   .37214889E-06
   .38515099E-06   .39521062E-06   .40226354E-06   .40626934E-06   .40721161E-06
   .40509793E-06   .39995973E-06   .39185186E-06   .38085203E-06   .36706007E-06
   .35059697E-06   .33160382E-06   .31024055E-06   .28668454E-06   .26112910E-06
   .23378183E-06   .20486289E-06   .17460317E-06   .14324238E-06   .11102709E-06
   .78208763E-07   .45041704E-07   .11781052E-07  -.21319243E-07  -.54008405E-07
  -.86040780E-07  -.11717773E-06  -.14718944E-06  -.17585665E-06  -.20297232E-06
  -.22834310E-06  -.25179075E-06  -.27315341E-06  -.29228671E-06  -.30906475E-06
  -.32338092E-06  -.33514854E-06  -.34430137E-06  -.35079394E-06  -.35460166E-06
  -.35572087E-06  -.35416862E-06  -.34998237E-06  -.34321945E-06  -.33395645E-06
  -.32228841E-06  -.30832788E-06  -.29220390E-06  -.27406076E-06  -.25405678E-06
  -.23236289E-06  -.20916115E-06  -.18464327E-06  -.15900897E-06  -.13246433E-06
  -.10522016E-06  -.77490279E-07  -.49489827E-07  -.21433587E-07   .64656829E-08
   .33998875E-07   .60962109E-07   .87158249E-07   .11239835E-06   .13650303E-06
   .15930374E-06   .18064391E-06   .20038007E-06   .21838274E-06   .23453730E-06
   .24874464E-06   .26092179E-06   .27100231E-06   .27893661E-06   .28469210E-06
   .28825326E-06   .28962146E-06   .28881482E-06   .28586776E-06   .28083059E-06
   .27376886E-06   .26476265E-06   .25390581E-06   .24130495E-06   .22707854E-06
   .21135578E-06   .19427545E-06   .17598476E-06   .15663803E-06   .13639545E-06
   .11542173E-06   .93884811E-07   .71954483E-07   .49801080E-07   .27594155E-07
   .55011930E-08  -.16313651E-07  -.37690755E-07  -.58476192E-07  -.78522823E-07
  -.97691324E-07  -.11585113E-06  -.13288132E-06  -.14867135E-06  -.16312181E-06
  -.17614495E-06  -.18766518E-06  -.19761949E-06  -.20595769E-06  -.21264264E-06
  -.21765028E-06  -.22096960E-06  -.22260256E-06  -.22256382E-06  -.22088046E-06
  -.21759151E-06  -.21274750E-06  -.20640990E-06  -.19865041E-06  -.18955027E-06
  -.17919950E-06  -.16769604E-06  -.15514485E-06  -.14165704E-06  -.12734887E-06
  -.11234081E-06  -.96756516E-07  -.80721857E-07  -.64363908E-07  -.47809962E-07
  -.31186558E-07  -.14618531E-07   .17719080E-08   .17866053E-07   .33549543E-07
   .48713153E-07   .63253529E-07   .77073867E-07   .90084529E-07   .10220359E-06
   .11335730E-06   .12348054E-06   .13251709E-06   .14041994E-06   .14715144E-06
   .15268342E-06   .15699722E-06   .16008366E-06   .16194291E-06   .16258431E-06
   .16202613E-06   .16029526E-06   .15742682E-06   .15346374E-06   .14845629E-06
   .14246156E-06   .13554286E-06   .12776913E-06   .11921435E-06   .10995681E-06
   .10007846E-06   .89664262E-07   .78801405E-07   .67578665E-07   .56085679E-07
   .44412257E-07   .32647700E-07   .20880142E-07   .91959078E-08  -.23210932E-08
  -.13589950E-07  -.24533292E-07  -.35077795E-07  -.45154641E-07  -.54699944E-07
  -.63655115E-07  -.71967187E-07  -.79589091E-07  -.86479879E-07  -.92604889E-07
  -.97935871E-07  -.10245105E-06  -.10613516E-06  -.10897937E-06  -.11098126E-06
  -.11214465E-06  -.11247944E-06  -.11200142E-06  -.11073197E-06  -.10869782E-06
  -.10593069E-06  -.10246697E-06  -.98347290E-07  -.93616181E-07  -.88321604E-07
  -.82514527E-07  -.76248479E-07  -.69579085E-07  -.62563608E-07  -.55260479E-07
  -.47728841E-07  -.40028092E-07  -.32217437E-07  -.24355456E-07  -.16499692E-07
  -.87062413E-08  -.10293857E-08   .64787683E-08   .13768616E-07   .20793359E-07
   .27509274E-07   .33875960E-07   .39856547E-07   .45417879E-07   .50530655E-07
   .55169553E-07   .59313300E-07   .62944731E-07   .66050801E-07   .68622574E-07
   .70655174E-07   .72147720E-07   .73103217E-07   .73528434E-07   .73433752E-07
   .72832987E-07   .71743200E-07   .70184484E-07   .68179729E-07   .65754385E-07
   .62936204E-07   .59754974E-07   .56242248E-07   .52431068E-07   .48355681E-07
   .44051262E-07   .39553633E-07   .34898986E-07   .30123616E-07   .25263655E-07
   .20354821E-07   .15432173E-07   .10529880E-07   .56810070E-08   .91730945E-09
  -.37309522E-08  -.82351822E-08  -.12568602E-07  -.16706386E-07  -.20625774E-07
  -.24306174E-07  -.27729235E-07  -.30878913E-07  -.33741506E-07  -.36305683E-07
  -.38562485E-07  -.40505317E-07  -.42129917E-07  -.43434310E-07  -.44418757E-07
  -.45085672E-07  -.45439545E-07  -.45486839E-07  -.45235883E-07  -.44696757E-07
  -.43881163E-07  -.42802293E-07  -.41474690E-07  -.39914107E-07  -.38137357E-07
  -.36162163E-07  -.34007015E-07  -.31691011E-07  -.29233715E-07  -.26655007E-07
  -.23974941E-07  -.21213605E-07  -.18390987E-07  -.15526845E-07  -.12640588E-07
  -.97511547E-08  -.68769120E-08  -.40355503E-08  -.12439938E-08   .14816829E-08
   .41263292E-08   .66757834E-08   .91169289E-08   .11437742E-07   .13627327E-07
   .15675952E-07   .17575060E-07   .19317290E-07   .20896475E-07   .22307640E-07
   .23546991E-07   .24611897E-07   .25500862E-07   .26213497E-07   .26750484E-07
   .27113529E-07   .27305321E-07   .27329480E-07   .27190499E-07   .26893693E-07
   .26445132E-07   .25851586E-07   .25120456E-07   .24259715E-07   .23277835E-07
   .22183728E-07   .20986680E-07   .19696282E-07   .18322370E-07   .16874960E-07
   .15364189E-07   .13800254E-07   .12193356E-07   .10553641E-07   .88911541E-08
   .72157829E-08   .55372142E-08   .38648879E-08   .22079556E-08   .57524227E-09
  -.10247893E-08  -.25840712E-08  -.40949597E-08  -.55502613E-08  -.69432565E-08
  -.82677200E-08  -.95179377E-08  -.10688721E-07  -.11775421E-07  -.12773931E-07
  -.13680699E-07  -.14492731E-07  -.15207587E-07  -.15823383E-07  -.16338788E-07
  -.16753015E-07  -.17065817E-07  -.17277472E-07  -.17388774E-07  -.17401019E-07
  -.17315985E-07  -.17135920E-07  -.16863520E-07  -.16501906E-07  -.16054608E-07
  -.15525533E-07  -.14918949E-07  -.14239450E-07  -.13491939E-07  -.12681591E-07
  -.11813829E-07  -.10894292E-07  -.99288083E-08  -.89233601E-08  -.78840552E-08
  -.68170944E-08  -.57287398E-08  -.46252828E-08  -.35130125E-08  -.23981836E-08
  -.12869854E-08  -.18551073E-09   .90027465E-09   .19645614E-08   .30017256E-08
   .40063565E-08   .49732833E-08   .58976006E-08   .67746924E-08   .76002545E-08
   .83703155E-08   .90812557E-08   .97298247E-08   .10313156E-07   .10828781E-07
   .11274638E-07   .11649084E-07   .11950898E-07   .12179287E-07   .12333884E-07
   .12414755E-07   .12422385E-07   .12357681E-07   .12221959E-07   .12016936E-07
   .11744714E-07   .11407769E-07   .11008928E-07   .10551354E-07   .10038525E-07
   .94742066E-08   .88624290E-08   .82074615E-08   .75137832E-08   .67860543E-08
   .60290856E-08   .52478079E-08   .44472402E-08   .36324577E-08   .28085595E-08
   .19806369E-08   .11537410E-08   .33285152E-09  -.47715396E-09  -.12715300E-08
  -.20456920E-08  -.27952437E-08  -.35160030E-08  -.42040268E-08  -.48556331E-08
  -.54674218E-08  -.60362933E-08  -.65594647E-08  -.70344839E-08  -.74592409E-08
  -.78319773E-08  -.81512925E-08  -.84161482E-08  -.86258700E-08  -.87801457E-08
  -.88790227E-08  -.89229013E-08  -.89125269E-08  -.88489789E-08  -.87336583E-08
  -.85682725E-08  -.83548187E-08  -.80955649E-08  -.77930300E-08  -.74499618E-08
  -.70693141E-08  -.66542227E-08  -.62079804E-08  -.57340111E-08  -.52358442E-08
  -.47170875E-08  -.41814013E-08  -.36324718E-08  -.30739853E-08  -.25096024E-08
  -.19429338E-08  -.13775159E-08  -.81678855E-09  -.26407303E-09   .27744774E-09
   .80474795E-09   .13149759E-08   .18054693E-08   .22737688E-08   .27176294E-08
   .31350305E-08   .35241834E-08   .38835369E-08   .42117810E-08   .45078489E-08
   .47709166E-08   .50004012E-08   .51959564E-08   .53574678E-08   .54850447E-08
   .55790121E-08   .56398997E-08   .56684310E-08   .56655104E-08   .56322096E-08
   .55697530E-08   .54795027E-08   .53629420E-08   .52216601E-08   .50573350E-08
   .48717170E-08   .46666129E-08   .44438692E-08   .42053565E-08   .39529542E-08
   .36885356E-08   .34139541E-08   .31310302E-08   .28415390E-08   .25471997E-08
   .22496653E-08   .19505138E-08   .16512408E-08   .13532526E-08   .10578620E-08
   .76628374E-09   .47963236E-09   .19892086E-09  -.74939500E-10  -.34113813E-09
 25.1333556480996805 T
 Non local Part
 0 2 1.18927618932127976
 4.95117802918466055 -0.263395023042996779 -0.263395023042996779 -0.110466427860580457E-01
 Reciprocal Space Part
   .45110332E+01   .45016018E+01   .44733853E+01   .44266159E+01   .43616785E+01
   .42791062E+01   .41795760E+01   .40639015E+01   .39330256E+01   .37880107E+01
   .36300287E+01   .34603494E+01   .32803279E+01   .30913912E+01   .28950241E+01
   .26927541E+01   .24861367E+01   .22767392E+01   .20661255E+01   .18558400E+01
   .16473926E+01   .14422431E+01   .12417875E+01   .10473435E+01   .86013837E+00
   .68129711E+00   .51183207E+00   .35263414E+00   .20446525E+00   .67952726E-01
  -.56414778E-01  -.16828949E+00  -.26746490E+00  -.35387441E+00  -.42758802E+00
  -.48880744E+00  -.53785942E+00  -.57518757E+00  -.60134276E+00  -.61697220E+00
  -.62280752E+00  -.61965191E+00  -.60836658E+00  -.58985678E+00  -.56505763E+00
  -.53491992E+00  -.50039616E+00  -.46242710E+00  -.42192896E+00  -.37978147E+00
  -.33681701E+00  -.29381096E+00  -.25147340E+00  -.21044217E+00  -.17127755E+00
  -.13445850E+00  -.10038034E+00  -.69354156E-01  -.41607581E-01  -.17287075E-01
   .35385049E-02   .20873119E-01   .34787714E-01   .45413499E-01   .52934499E-01
   .57579586E-01   .59614153E-01   .59331627E-01   .57045014E-01   .53078621E-01
   .47760155E-01   .41413304E-01   .34350968E-01   .26869222E-01   .19242103E-01
   .11717294E-01   .45127375E-02  -.21858099E-02  -.82262730E-02  -.13490848E-01
  -.17895726E-01  -.21390012E-01  -.23953936E-01  -.25596433E-01  -.26352204E-01
  -.26278367E-01  -.25450813E-01  -.23960375E-01  -.21908932E-01  -.19405540E-01
  -.16562704E-01  -.13492862E-01  -.10305176E-01  -.71026792E-02  -.39798380E-02
  -.10205562E-02   .17033488E-02   .41331990E-02   .62240414E-02   .79447876E-02
 Real Space Part
  -.86094301E+01  -.85611105E+01  -.84167483E+01  -.81781252E+01  -.78481830E+01
  -.74309829E+01  -.69316493E+01  -.63562983E+01  -.57119525E+01  -.50064432E+01
  -.42483008E+01  -.34466354E+01  -.26110094E+01  -.17513030E+01  -.87757604E+00
   .72880756E-04   .87164777E+00   .17273941E+01   .25579338E+01   .33543935E+01
   .41085244E+01   .48128115E+01   .54605704E+01   .60460296E+01   .65643980E+01
   .70119144E+01   .73858811E+01   .76846774E+01   .79077567E+01   .80556242E+01
   .81297977E+01   .81327519E+01   .80678469E+01   .79392434E+01   .77518064E+01
   .75109982E+01   .72227648E+01   .68934174E+01   .65295112E+01   .61377239E+01
   .57247376E+01   .52971254E+01   .48612447E+01   .44231403E+01   .39884581E+01
   .35623708E+01   .31495175E+01   .27539570E+01   .23791357E+01   .20278696E+01
   .17023408E+01   .14041072E+01   .11341243E+01   .89277839E+00   .67992962E+00
   .49496245E+00   .33684294E+00   .20418031E+00   .95291152E-01   .82645657E-02
  -.58973508E-01  -.10859825E+00  -.14282762E+00  -.16386890E+00  -.17387098E+00
  -.17488322E+00  -.16882125E+00  -.15744003E+00  -.14231409E+00  -.12482489E+00
  -.10615470E+00  -.87286671E-01  -.69010266E-01  -.51931376E-01  -.36486195E-01
  -.22958054E-01  -.11496301E-01  -.21364106E-02   .51794840E-02   .10582333E-01
   .14256819E-01   .16423418E-01   .17322291E-01   .17199279E-01   .16294208E-01
   .14831546E-01   .13013419E-01   .11014865E-01   .89811428E-02   .70268855E-02
   .52368035E-02   .36676579E-02   .23511940E-02   .12977375E-02   .50017228E-03
  -.61956935E-04  -.41843818E-03  -.60466432E-03  -.65832441E-03  -.61661233E-03
 Reciprocal Space Part
  -.23421087E+02  -.23273355E+02  -.22831452E+02  -.22099253E+02  -.21083198E+02
  -.19792270E+02  -.18237952E+02  -.16434181E+02  -.14397273E+02  -.12145841E+02
  -.97006877E+01  -.70846742E+01  -.43225642E+01  -.14408427E+01   .15324956E+01
   .45681853E+01   .76359586E+01   .10704842E+02   .13743479E+02   .16720473E+02
   .19604756E+02   .22365965E+02   .24974835E+02   .27403588E+02   .29626322E+02
   .31619392E+02   .33361764E+02   .34835351E+02   .36025307E+02   .36920290E+02
   .37512663E+02   .37798651E+02   .37778438E+02   .37456193E+02   .36840037E+02
   .35941943E+02   .34777560E+02   .33365982E+02   .31729449E+02   .29892989E+02
   .27884011E+02   .25731855E+02   .23467300E+02   .21122056E+02   .18728225E+02
   .16317773E+02   .13921993E+02   .11570998E+02   .92932264E+01   .71149952E+01
   .50600959E+01   .31494432E+01   .14007868E+01  -.17151112E+00  -.15566273E+01
  -.27473563E+01  -.37401152E+01  -.45348768E+01  -.51350321E+01  -.55471882E+01
  -.57809063E+01  -.58483875E+01  -.57641139E+01  -.55444554E+01  -.52072499E+01
  -.47713697E+01  -.42562818E+01  -.36816139E+01  -.30667355E+01  -.24303627E+01
  -.17901954E+01  -.11625950E+01  -.56230682E+00  -.22338475E-02   .50673618E+00
   .95584746E+00   .13385368E+01   .16504390E+01   .18893393E+01   .20550765E+01
   .21494018E+01   .21757985E+01   .21392691E+01   .20460979E+01   .19035944E+01
   .17198275E+01   .15033557E+01   .12629625E+01   .10074022E+01   .74516327E+00
   .48425446E+00   .23201758E+00  -.50285769E-02  -.22131131E+00  -.41229241E+00
  -.57452147E+00  -.70565470E+00  -.80444084E+00  -.87067655E+00  -.90513442E+00
 Real Space Part
   .63381100E+03   .63319012E+03   .63131750E+03   .62816376E+03   .62368168E+03
   .61780880E+03   .61047088E+03   .60158613E+03   .59107002E+03   .57884057E+03
   .56482374E+03   .54895894E+03   .53120425E+03   .51154126E+03   .48997933E+03
   .46655897E+03   .44135447E+03   .41447533E+03   .38606669E+03   .35630860E+03
   .32541412E+03   .29362636E+03   .26121444E+03   .22846869E+03   .19569489E+03
   .16320811E+03   .13132608E+03   .10036231E+03   .70619333E+02   .42382108E+02
   .15911834E+02  -.85596188E+01  -.30834522E+02  -.50753222E+02  -.68197063E+02
  -.83090262E+02  -.95400666E+02  -.10513942E+03  -.11235956E+03  -.11715360E+03
  -.11965022E+03  -.12001018E+03  -.11842152E+03  -.11509437E+03  -.11025536E+03
  -.10414185E+03  -.96996277E+02  -.89060546E+02  -.80570815E+02  -.71752690E+02
  -.62816995E+02  -.53956169E+02  -.45341390E+02  -.37120431E+02  -.29416281E+02
  -.22326518E+02  -.15923395E+02  -.10254583E+02  -.53445136E+01  -.11962215E+01
   .22063992E+01   .48960255E+01   .69191295E+01   .83330937E+01   .92033167E+01
   .96003976E+01   .95974783E+01   .92678119E+01   .86826086E+01   .79092012E+01
   .70095537E+01   .60391244E+01   .50460814E+01   .40708571E+01   .31460162E+01
   .22964049E+01   .15395420E+01   .88620818E+00   .34118706E+00  -.95888129E-01
  -.42962692E+00  -.66795538E+00  -.82120853E+00  -.90127378E+00  -.92081157E+00
  -.89257293E+00  -.82882753E+00  -.74090914E+00  -.63887981E+00  -.53130903E+00
  -.42515946E+00  -.32576754E+00  -.23690478E+00  -.16090373E+00  -.98832269E-01
  -.50699764E-01  -.15679662E-01   .76653924E-02   .21167912E-01   .26859071E-01
 Non local Part
 1 2 1.18927618932127976
 1.22338086304260707 2.14672215900143470 2.14672215900143470 1.34142492866586371
 Reciprocal Space Part
   .00000000E+00   .23087905E+00   .45959127E+00   .68400091E+00   .90203382E+00
   .11117069E+01   .13111558E+01   .14986608E+01   .16726693E+01   .18318169E+01
   .19749432E+01   .21011058E+01   .22095891E+01   .22999106E+01   .23718221E+01
   .24253074E+01   .24605768E+01   .24780568E+01   .24783780E+01   .24623582E+01
   .24309845E+01   .23853921E+01   .23268417E+01   .22566954E+01   .21763917E+01
   .20874203E+01   .19912973E+01   .18895402E+01   .17836444E+01   .16750614E+01
   .15651783E+01   .14552996E+01   .13466315E+01   .12402685E+01   .11371831E+01
   .10382178E+01   .94408030E+00   .85534161E+00   .77243620E+00   .69566530E+00
   .62520229E+00   .56110016E+00   .50330085E+00   .45164614E+00   .40588965E+00
   .36570986E+00   .33072359E+00   .30049971E+00   .27457284E+00   .25245664E+00
   .23365641E+00   .21768089E+00   .20405296E+00   .19231901E+00   .18205707E+00
   .17288333E+00   .16445728E+00   .15648520E+00   .14872228E+00   .14097322E+00
   .13309153E+00   .12497766E+00   .11657594E+00   .10787080E+00   .98882055E-01
   .89659783E-01   .80278770E-01   .70832776E-01   .61428782E-01   .52181379E-01
   .43207446E-01   .34621242E-01   .26530022E-01   .19030259E-01   .12204534E-01
   .61191437E-02   .82242341E-03  -.36562049E-02  -.73064915E-02  -.10136968E-01
  -.12173970E-01  -.13460135E-01  -.14052480E-01  -.14020125E-01  -.13441776E-01
  -.12403052E-01  -.10993756E-01  -.93051748E-02  -.74274931E-02  -.54473952E-02
  -.34459148E-02  -.14965856E-02   .33606769E-03   .19976745E-02   .34447858E-02
   .46452638E-02   .55783064E-02   .62341281E-02   .66133293E-02   .67259937E-02
 Real Space Part
   .00000000E+00   .13215069E+01   .26294969E+01   .39106933E+01   .51522943E+01
   .63421954E+01   .74691962E+01   .85231847E+01   .94952962E+01   .10378043E+02
   .11165412E+02   .11852928E+02   .12437685E+02   .12918341E+02   .13295078E+02
   .13569538E+02   .13744717E+02   .13824853E+02   .13815270E+02   .13722228E+02
   .13552742E+02   .13314409E+02   .13015219E+02   .12663382E+02   .12267150E+02
   .11834657E+02   .11373774E+02   .10891977E+02   .10396235E+02   .98929241E+01
   .93877615E+01   .88857577E+01   .83911960E+01   .79076300E+01   .74379012E+01
   .69841722E+01   .65479759E+01   .61302751E+01   .57315315E+01   .53517807E+01
   .49907092E+01   .46477329E+01   .43220719E+01   .40128215E+01   .37190165E+01
   .34396875E+01   .31739079E+01   .29208318E+01   .26797209E+01   .24499626E+01
   .22310781E+01   .20227220E+01   .18246746E+01   .16368277E+01   .14591655E+01
   .12917418E+01   .11346558E+01   .98802616E+00   .85196638E+00   .72656170E+00
   .61184854E+00   .50779745E+00   .41429997E+00   .33115985E+00   .25808856E+00
   .19470520E+00   .14054042E+00   .95043957E-01   .57595279E-01   .27516660E-01
   .40880398E-02  -.13437072E-01  -.25815329E-01  -.33797593E-01  -.38113877E-01
  -.39459718E-01  -.38484377E-01  -.35781193E-01  -.31880284E-01  -.27243673E-01
  -.22262838E-01  -.17258560E-01  -.12482876E-01  -.81228831E-02  -.43060697E-02
  -.11068380E-02   .14461418E-02   .33621050E-02   .46802303E-02   .54618535E-02
   .57831268E-02   .57283441E-02   .53841033E-02   .48344194E-02   .41568509E-02
   .34196496E-02   .26798992E-02   .19825694E-02   .13603817E-02   .83435804E-03
 Reciprocal Space Part
   .00000000E+00  -.56102570E+00  -.11037022E+01  -.16102191E+01  -.20638288E+01
  -.24493415E+01  -.27535767E+01  -.29657600E+01  -.30778533E+01  -.30848099E+01
  -.29847467E+01  -.27790293E+01  -.24722679E+01  -.20722225E+01  -.15896218E+01
  -.10378987E+01  -.43285099E+00   .20776432E+00   .86469277E+00   .15176869E+01
   .21460407E+01   .27291393E+01   .32470096E+01   .36808573E+01   .40135754E+01
   .42302116E+01   .43183819E+01   .42686192E+01   .40746487E+01   .37335821E+01
   .32460264E+01   .26161042E+01   .18513852E+01   .96273107E+00  -.35941448E-01
  -.11279743E+01  -.22943490E+01  -.35141250E+01  -.47649242E+01  -.60234495E+01
  -.72660228E+01  -.84691303E+01  -.96099598E+01  -.10666918E+02  -.11620116E+02
  -.12451803E+02  -.13146758E+02  -.13692602E+02  -.14080048E+02  -.14303074E+02
  -.14359016E+02  -.14248574E+02  -.13975752E+02  -.13547709E+02  -.12974543E+02
  -.12269015E+02  -.11446207E+02  -.10523144E+02  -.95183705E+01  -.84515043E+01
  -.73427801E+01  -.62125867E+01  -.50810155E+01  -.39674285E+01  -.28900568E+01
  -.18656391E+01  -.90910620E+00  -.33319509E-01   .75113191E+00   .14360734E+01
   .20158235E+01   .24872107E+01   .28495281E+01   .31044322E+01   .32557875E+01
   .33094653E+01   .32731016E+01   .31558237E+01   .29679526E+01   .27206902E+01
   .24257995E+01   .20952878E+01   .17410990E+01   .13748237E+01   .10074346E+01
   .64905053E+00   .30873683E+00  -.56564782E-02  -.28761534E+00  -.53204026E+00
  -.73528274E+00  -.89514089E+00  -.10108163E+01  -.10828355E+01  -.11129403E+01
  -.11039508E+01  -.10596079E+01  -.98439952E+00  -.88337673E+00  -.76196590E+00
 Real Space Part
   .00000000E+00  -.40768983E+02  -.80817076E+02  -.11943980E+03  -.15596509E+03
  -.18976834E+03  -.22028635E+03  -.24702946E+03  -.26959189E+03  -.28765979E+03
  -.30101700E+03  -.30954818E+03  -.31323950E+03  -.31217675E+03  -.30654097E+03
  -.29660192E+03  -.28270939E+03  -.26528281E+03  -.24479939E+03  -.22178120E+03
  -.19678147E+03  -.17037066E+03  -.14312252E+03  -.11560061E+03  -.88345627E+02
  -.61863814E+02  -.36616718E+02  -.13012581E+02   .86005280E+01   .27939706E+02
   .44790282E+02   .59006963E+02   .70513135E+02   .79298406E+02   .85414582E+02
   .88970239E+02   .90124155E+02   .89077826E+02   .86067334E+02   .81354855E+02
   .75220042E+02   .67951559E+02   .59838986E+02   .51165305E+02   .42200142E+02
   .33193916E+02   .24372978E+02   .15935832E+02   .80504541E+01   .85269586E+00
  -.55542486E+01  -.11099401E+02  -.15742671E+02  -.19472753E+02  -.22304389E+02
  -.24275137E+02  -.25441777E+02  -.25876519E+02  -.25663139E+02  -.24893169E+02
  -.23662271E+02  -.22066874E+02  -.20201171E+02  -.18154528E+02  -.16009350E+02
  -.13839419E+02  -.11708716E+02  -.96707092E+01  -.77680729E+01  -.60328085E+01
  -.44867067E+01  -.31420983E+01  -.20028305E+01  -.10654066E+01  -.32022704E+00
   .24712639E+00   .65461561E+00   .92252746E+00   .10723490E+01   .11257675E+01
   .11038156E+01   .10261760E+01   .91064962E+00   .77278445E+00   .62565820E+00
   .47979930E+00   .34322930E+00   .22160602E+00   .11844568E+00   .35401540E-01
  -.27422356E-01  -.71142450E-01  -.97769691E-01  -.10990130E+00  -.11044224E+00
  -.10236499E+00  -.88513230E-01  -.71451859E-01  -.53363059E-01  -.35985931E-01
 PAW radial sets
 337 0.708915279022619527
(5E20.12)                                
 augmentation charges (non sperical)
  -.121506687787E+00  -.455148147517E-02  -.959423653950E-02   .568235044013E-02  -.455148147517E-02
  -.221294527321E-03   .149257157214E-03   .371551425296E-04  -.959423653950E-02   .149257157214E-03
   .116078371832E+00   .310041503209E-01   .568235044013E-02   .371551425296E-04   .310041503209E-01
   .638391057359E-02
 uccopancies in atom
   .200000000000E+01   .000000000000E+00   .000000000000E+00   .000000000000E+00   .000000000000E+00
   .000000000000E+00   .000000000000E+00   .000000000000E+00   .000000000000E+00   .000000000000E+00
   .999999999728E+00   .000000000000E+00   .000000000000E+00   .000000000000E+00   .000000000000E+00
   .000000000000E+00
 grid
   .280527516333E-04   .289225357721E-04   .298192878340E-04   .307438439676E-04   .316970662468E-04
   .326798434741E-04   .336930920097E-04   .347377566259E-04   .358148113878E-04   .369252605618E-04
   .380701395518E-04   .392505158649E-04   .404674901063E-04   .417221970061E-04   .430158064768E-04
   .443495247045E-04   .457245952736E-04   .471423003259E-04   .486039617567E-04   .501109424469E-04
   .516646475341E-04   .532665257223E-04   .549180706334E-04   .566208221993E-04   .583763680979E-04
   .601863452337E-04   .620524412639E-04   .639763961718E-04   .659600038897E-04   .680051139712E-04
   .701136333158E-04   .722875279473E-04   .745288248462E-04   .768396138405E-04   .792220495539E-04
   .816783534148E-04   .842108157277E-04   .868217978087E-04   .895137341871E-04   .922891348757E-04
   .951505877110E-04   .981007607661E-04   .101142404838E-03   .104278356015E-03   .107511538316E-03
   .110844966423E-03   .114281748487E-03   .117825089030E-03   .121478291928E-03   .125244763500E-03
   .129128015674E-03   .133131669268E-03   .137259457366E-03   .141515228795E-03   .145902951719E-03
   .150426717332E-03   .155090743682E-03   .159899379594E-03   .164857108732E-03   .169968553777E-03
   .175238480738E-03   .180671803396E-03   .186273587883E-03   .192049057411E-03   .198003597136E-03
   .204142759186E-03   .210472267831E-03   .216998024827E-03   .223726114913E-03   .230662811488E-03
   .237814582461E-03   .245188096279E-03   .252790228147E-03   .260628066437E-03   .268708919298E-03
   .277040321473E-03   .285630041319E-03   .294486088053E-03   .303616719224E-03   .313030448405E-03
   .322736053137E-03   .332742583110E-03   .343059368603E-03   .353696029184E-03   .364662482677E-03
   .375968954412E-03   .387625986760E-03   .399644448959E-03   .412035547251E-03   .424810835334E-03
   .437982225128E-03   .451561997889E-03   .465562815655E-03   .479997733055E-03   .494880209481E-03
   .510224121638E-03   .526043776481E-03   .542353924558E-03   .559169773761E-03   .576507003509E-03
   .594381779364E-03   .612810768108E-03   .631811153281E-03   .651400651203E-03   .671597527497E-03
   .692420614113E-03   .713889326894E-03   .736023683677E-03   .758844322957E-03   .782372523134E-03
   .806630222348E-03   .831640038941E-03   .857425292542E-03   .884010025812E-03   .911419026863E-03
   .939677852369E-03   .968812851398E-03   .998851189976E-03   .102982087642E-02   .106175078746E-02
   .109467069516E-02   .112861129465E-02   .116360423281E-02   .119968213770E-02   .123687864907E-02
   .127522844964E-02   .131476729750E-02   .135553205942E-02   .139756074525E-02   .144089254332E-02
   .148556785704E-02   .153162834252E-02   .157911694742E-02   .162807795104E-02   .167855700554E-02
   .173060117855E-02   .178425899706E-02   .183958049263E-02   .189661724807E-02   .195542244556E-02
   .201605091616E-02   .207855919103E-02   .214300555407E-02   .220945009629E-02   .227795477185E-02
   .234858345582E-02   .242140200372E-02   .249647831295E-02   .257388238610E-02   .265368639620E-02
   .273596475402E-02   .282079417747E-02   .290825376313E-02   .299842505997E-02   .309139214544E-02
   .318724170380E-02   .328606310702E-02   .338794849805E-02   .349299287677E-02   .360129418856E-02
   .371295341562E-02   .382807467115E-02   .394676529639E-02   .406913596075E-02   .419530076495E-02
   .432537734748E-02   .445948699420E-02   .459775475151E-02   .474030954290E-02   .488728428917E-02
   .503881603237E-02   .519504606359E-02   .535612005467E-02   .552218819408E-02   .569340532692E-02
   .586993109928E-02   .605193010718E-02   .623957204995E-02   .643303188850E-02   .663249000848E-02
   .683813238844E-02   .705015077324E-02   .726874285286E-02   .749411244673E-02   .772646969374E-02
   .796603124822E-02   .821302048191E-02   .846766769229E-02   .873021031726E-02   .900089315657E-02
   .927996860004E-02   .956769686293E-02   .986434622857E-02   .101701932985E-01   .104855232502E-01
   .108106301035E-01   .111458169942E-01   .114913964569E-01   .118476907164E-01   .122150319883E-01
   .125937627887E-01   .129842362533E-01   .133868164670E-01   .138018788033E-01   .142298102742E-01
   .146710098911E-01   .151258890370E-01   .155948718499E-01   .160783956182E-01   .165769111888E-01
   .170908833870E-01   .176207914503E-01   .181671294750E-01   .187304068773E-01   .193111488675E-01
   .199098969406E-01   .205272093808E-01   .211636617819E-01   .218198475842E-01   .224963786278E-01
   .231938857233E-01   .239130192394E-01   .246544497100E-01   .254188684590E-01   .262069882449E-01
   .270195439257E-01   .278572931437E-01   .287210170323E-01   .296115209441E-01   .305296352018E-01
   .314762158727E-01   .324521455667E-01   .334583342591E-01   .344957201394E-01   .355652704861E-01
   .366679825681E-01   .378048845754E-01   .389770365768E-01   .401855315093E-01   .414314961966E-01
   .427160923999E-01   .440405179010E-01   .454060076197E-01   .468138347644E-01   .482653120201E-01
   .497617927717E-01   .513046723665E-01   .528953894146E-01   .545354271311E-01   .562263147182E-01
   .579696287918E-01   .597669948511E-01   .616200887945E-01   .635306384819E-01   .655004253464E-01
   .675312860547E-01   .696251142200E-01   .717838621675E-01   .740095427550E-01   .763042312493E-01
   .786700672619E-01   .811092567431E-01   .836240740397E-01   .862168640153E-01   .888900442366E-01
   .916461072276E-01   .944876227942E-01   .974172404194E-01   .100437691734E+00   .103551793066E+00
   .106762448061E+00   .110072650395E+00   .113485486565E+00   .117004138763E+00   .120631887848E+00
   .124372116402E+00   .128228311886E+00   .132204069889E+00   .136303097485E+00   .140529216684E+00
   .144886368000E+00   .149378614125E+00   .154010143714E+00   .158785275294E+00   .163708461288E+00
   .168784292168E+00   .174017500736E+00   .179412966535E+00   .184975720401E+00   .190710949150E+00
   .196624000420E+00   .202720387652E+00   .209005795233E+00   .215486083798E+00   .222167295690E+00
   .229055660599E+00   .236157601368E+00   .243479739980E+00   .251028903739E+00   .258812131627E+00
   .266836680875E+00   .275110033725E+00   .283639904409E+00   .292434246341E+00   .301501259532E+00
   .310849398238E+00   .320487378843E+00   .330424187982E+00   .340669090926E+00   .351231640216E+00
   .362121684576E+00   .373349378090E+00   .384925189674E+00   .396859912833E+00   .409164675732E+00
   .421850951565E+00   .434930569259E+00   .448415724497E+00   .462318991095E+00   .476653332723E+00
   .491432114994E+00   .506669117928E+00   .522378548794E+00   .538575055366E+00   .555273739575E+00
   .572490171592E+00   .590240404346E+00   .608540988491E+00   .627408987842E+00   .646861995280E+00
   .666918149159E+00   .687596150219E+00   .708915279023E+00   .730895413931E+00   .753557049641E+00
   .776921316292E+00   .801009999172E+00
 aepotential
   .363639741525E+05   .353486988431E+05   .343218421719E+05   .332873506987E+05   .322493425013E+05
   .312116817821E+05   .301779824554E+05   .291515900552E+05   .281355719873E+05   .271327122522E+05
   .261455097070E+05   .251761801616E+05   .242266612837E+05   .232986206673E+05   .223934661094E+05
   .215123579591E+05   .206562230842E+05   .198257700763E+05   .190215053474E+05   .182437497397E+05
   .174926553864E+05   .167682225150E+05   .160703159665E+05   .153986812261E+05   .147529597911E+05
   .141327037385E+05   .135373894181E+05   .129664301650E+05   .124191880122E+05   .118949843633E+05
   .113931096827E+05   .109128321163E+05   .104534052295E+05   .100140747189E+05   .959408436168E+04
   .919268105970E+04   .880911918884E+04   .844266424842E+04   .809259589992E+04   .775821039989E+04
   .743882261121E+04   .713376751399E+04   .684240134668E+04   .656410242701E+04   .629827164939E+04
   .604433276833E+04   .580173243593E+04   .556994011018E+04   .534844775879E+04   .513676946601E+04
   .493444100413E+04   .474101918523E+04   .455608133122E+04   .437922451875E+04   .421006498213E+04
   .404823730666E+04   .389339377076E+04   .374520359187E+04   .360335219401E+04   .346754051519E+04
   .333748429799E+04   .321291338902E+04   .309357108986E+04   .297921350116E+04   .286960890600E+04
   .276453716092E+04   .266378912080E+04   .256716609088E+04   .247447928324E+04   .238554932784E+04
   .230020577148E+04   .221828663647E+04   .213963796492E+04   .206411341185E+04   .199157384772E+04
   .192188698360E+04   .185492700868E+04   .179057426100E+04   .172871489759E+04   .166924060140E+04
   .161204828066E+04   .155703980758E+04   .150412175443E+04   .145320515704E+04   .140420526364E+04
   .135704135019E+04   .131163647545E+04   .126791731834E+04   .122581396868E+04   .118525976774E+04
   .114619113374E+04   .110854740959E+04   .107227071448E+04   .103730579901E+04   .100359991984E+04
   .971102708549E+03   .939766055312E+03   .909543996388E+03   .880392605856E+03   .852269898434E+03
   .825135730040E+03   .798951711238E+03   .773681119698E+03   .749288819036E+03   .725741183375E+03
   .703006024362E+03   .681052521465E+03   .659851157598E+03   .639373657217E+03   .619592927130E+03
   .600483001830E+03   .582018989710E+03   .564177023819E+03   .546934214176E+03   .530268602534E+03
   .514159120016E+03   .498585546066E+03   .483528470409E+03   .468969255931E+03   .454890004293E+03
   .441273522745E+03   .428103292723E+03   .415363439803E+03   .403038705661E+03   .391114420680E+03
   .379576478711E+03   .368411312191E+03   .357605868845E+03   .347147590092E+03   .337024389275E+03
   .327224631997E+03   .317737116800E+03   .308551056886E+03   .299656062835E+03   .291042125975E+03
   .282699602499E+03   .274619198521E+03   .266791955511E+03   .259209236639E+03   .251862713713E+03
   .244744354458E+03   .237846410836E+03   .231161407375E+03   .224682130329E+03   .218401617250E+03
   .212313147000E+03   .206410230161E+03   .200686599981E+03   .195136203508E+03   .189753193401E+03
   .184531919758E+03   .179466922520E+03   .174552924136E+03   .169784822509E+03   .165157684250E+03
   .160666738222E+03   .156307369361E+03   .152075112703E+03   .147965647713E+03   .143974792800E+03
   .140098500097E+03   .136332850405E+03   .132674048320E+03   .129118417754E+03   .125662397229E+03
   .122302535831E+03   .119035488956E+03   .115858014436E+03   .112766968678E+03   .109759303081E+03
   .106832060482E+03   .103982371805E+03   .101207452823E+03   .985046010377E+02   .958711926753E+02
   .933046798103E+02   .908025876049E+02   .883625116361E+02   .859821153174E+02   .836591274767E+02
   .813913399403E+02   .791766052946E+02   .770128346760E+02   .748979956694E+02   .728301103007E+02
   .708072530777E+02   .688275491452E+02   .668891724779E+02   .649903441822E+02   .631293308353E+02
   .613044429175E+02   .595140333034E+02   .577564958085E+02   .560302638159E+02   .543338089527E+02
   .526656398285E+02   .510243008416E+02   .494083710310E+02   .478164629940E+02   .462472218524E+02
   .446993242848E+02   .431714775948E+02   .416624188544E+02   .401709140744E+02   .386957574524E+02
   .372357706445E+02   .357898021135E+02   .343567265021E+02   .329354440718E+02   .315248801825E+02
   .301239848158E+02   .287317321592E+02   .273471202133E+02   .259691704701E+02   .245969276151E+02
   .232294592857E+02   .218658558680E+02   .205052303380E+02   .191467181433E+02   .177894771268E+02
   .164326874903E+02   .150755517980E+02   .137172950157E+02   .123571645916E+02   .109944305686E+02
   .962838573530E+01   .825834580743E+01   .688364964536E+01   .550365950006E+01   .411776129127E+01
   .272536491297E+01   .132590456771E+01  -.811608726201E-01  -.149634748076E+01  -.292014586199E+01
  -.435302071851E+01  -.579541038874E+01  -.724772636160E+01  -.871035276612E+01  -.101836458321E+02
  -.116679333222E+02  -.131635139298E+02  -.146706566387E+02  -.161896000369E+02  -.177205515777E+02
  -.192636867748E+02  -.208191483196E+02  -.223870451014E+02  -.239674511108E+02  -.255604041983E+02
  -.271659046567E+02  -.287839135878E+02  -.304143510061E+02  -.320570936226E+02  -.337119722409E+02
  -.353787686852E+02  -.370572121637E+02  -.387469749575E+02  -.404476673028E+02  -.421588313190E+02
  -.438799338088E+02  -.456103577416E+02  -.473493922075E+02  -.490962206156E+02  -.508499069039E+02
  -.526093795307E+02  -.543734130444E+02  -.561406070829E+02  -.579093627492E+02  -.596778564634E+02
  -.614440116193E+02  -.632054686969E+02  -.649595549163E+02  -.667032550900E+02  -.684331860342E+02
  -.701455777437E+02  -.718362654769E+02  -.735006978979E+02  -.751339673772E+02  -.767308693647E+02
  -.782859982940E+02  -.797938876916E+02  -.812492020575E+02  -.826469878511E+02  -.839829910573E+02
  -.852540490827E+02  -.864585671912E+02  -.875970892780E+02  -.886729693113E+02  -.896931274595E+02
  -.906688133867E+02  -.916161615546E+02  -.925560698026E+02  -.935125585017E+02  -.945084003335E+02
  -.955568564711E+02  -.966495565018E+02  -.977435752368E+02  -.987548956466E+02  -.995673584555E+02
  -.100061379620E+03  -.100154992533E+03  -.998385173631E+02  -.991826926026E+02  -.983122581877E+02
  -.973581436293E+02  -.964160582281E+02  -.955317704410E+02  -.947111132488E+02  -.939390886823E+02
  -.931953467187E+02  -.924622718412E+02  -.917274076175E+02  -.909830054766E+02  -.902246341771E+02
  -.894498046272E+02  -.886569511579E+02  -.878448120816E+02  -.870121334636E+02  -.861575898467E+02
  -.852798259845E+02  -.843775489340E+02  -.834496263823E+02  -.824951684779E+02  -.815135848938E+02
  -.805046170962E+02  -.794683496812E+02  -.784052057147E+02  -.773159306962E+02  -.762015689104E+02
  -.750634350168E+02  -.739030826194E+02  -.727222713575E+02  -.715229330450E+02  -.703071374144E+02
  -.690770577969E+02  -.678349366580E+02
 core charge-density
   .378166384757E-05   .401938221399E-05   .427204066085E-05   .454057784405E-05   .482599136570E-05
   .512934147321E-05   .545175499020E-05   .579442949387E-05   .615863775415E-05   .654573245093E-05
   .695715118702E-05   .739442181501E-05   .785916809796E-05   .835311572453E-05   .887809870087E-05
   .943606614281E-05   .100290894932E-04   .106593701912E-04   .113292478214E-04   .120412087736E-04
   .127978954431E-04   .136021160083E-04   .144568548188E-04   .153652834335E-04   .163307723491E-04
   .173569034617E-04   .184474833077E-04   .196065571320E-04   .208384238353E-04   .221476518555E-04
   .235390960405E-04   .250179155760E-04   .265895930308E-04   .282599545926E-04   .300351915660E-04
   .319218832115E-04   .339270210099E-04   .360580344392E-04   .383228183591E-04   .407297621019E-04
   .432877803764E-04   .460063460970E-04   .488955252567E-04   .519660139717E-04   .552291778313E-04
   .586970936959E-04   .623825940948E-04   .662993143841E-04   .704617428360E-04   .748852738393E-04
   .795862644046E-04   .845820941769E-04   .898912291720E-04   .955332894673E-04   .101529121088E-03
   .107900872352E-03   .114672074936E-03   .121867729970E-03   .129514399458E-03   .137640303344E-03
   .146275422593E-03   .155451608631E-03   .165202699543E-03   .175564643455E-03   .186575629507E-03
   .198276226915E-03   .210709532591E-03   .223921327859E-03   .237960244800E-03   .252877942839E-03
   .268729296164E-03   .285572592666E-03   .303469745067E-03   .322486515002E-03   .342692750813E-03
   .364162639902E-03   .386974976500E-03   .411213445807E-03   .436966925455E-03   .464329805358E-03
   .493402327040E-03   .524290943604E-03   .557108701578E-03   .591975645945E-03   .629019249726E-03
   .668374869583E-03   .710186228981E-03   .754605930542E-03   .801795999301E-03   .851928458704E-03
   .905185941259E-03   .961762335868E-03   .102186347400E-02   .108570785696E-02   .115352742663E-02
   .122556838226E-02   .130209204591E-02   .138337577935E-02   .146971395547E-02   .156141898719E-02
   .165882241729E-02   .176227607249E-02   .187215328560E-02   .198885018939E-02   .211278708638E-02
   .224440989875E-02   .238419170285E-02   .253263435297E-02   .269027019941E-02   .285766390598E-02
   .303541437236E-02   .322415676715E-02   .342456467750E-02   .363735238163E-02   .386327725094E-02
   .410314228842E-02   .435779881085E-02   .462814928203E-02   .491515030523E-02   .521981578291E-02
   .554322025240E-02   .588650240652E-02   .625086880843E-02   .663759781052E-02   .704804368736E-02
   .748364099335E-02   .794590915589E-02   .843645731536E-02   .895698942371E-02   .950930961369E-02
   .100953278512E-01   .107170658839E-01   .113766634985E-01   .120763851020E-01   .128186266388E-01
   .136059228594E-01   .144409549552E-01   .153265585731E-01   .162657322265E-01   .172616461172E-01
   .183176513830E-01   .194372897880E-01   .206243038695E-01   .218826475581E-01   .232164972855E-01
   .246302635953E-01   .261286032715E-01   .277164319986E-01   .293989375669E-01   .311815936358E-01
   .330701740666E-01   .350707678356E-01   .371897945364E-01   .394340204794E-01   .418105753938E-01
   .443269697359E-01   .469911126043E-01   .498113302613E-01   .527963852542E-01   .559554961287E-01
   .592983577222E-01   .628351620189E-01   .665766195451E-01   .705339812770E-01   .747190610268E-01
   .791442582658E-01   .838225813376E-01   .887676710020E-01   .939938242464E-01   .995160182871E-01
   .105349934674E+00   .111511983402E+00   .118019326912E+00   .124889903864E+00   .132142452534E+00
   .139796533688E+00   .147872552742E+00   .156391781033E+00   .165376375983E+00   .174849399906E+00
   .184834837227E+00   .195357609811E+00   .206443590098E+00   .218119611727E+00   .230413477255E+00
   .243353962607E+00   .256970817822E+00   .271294763636E+00   .286357483419E+00   .302191609933E+00
   .318830706372E+00   .336309241058E+00   .354662555192E+00   .373926822969E+00   .394139003372E+00
   .415336782889E+00   .437558508392E+00   .460843109360E+00   .485230008624E+00   .510759020751E+00
   .537470237197E+00   .565403897303E+00   .594600244233E+00   .625099364900E+00   .656941012977E+00
   .690164414050E+00   .724808052028E+00   .760909435932E+00   .798504846243E+00   .837629060032E+00
   .878315054192E+00   .920593686163E+00   .964493351671E+00   .101003961913E+01   .105725484051E+01
   .110615773869E+01   .115676297144E+01   .120908067261E+01   .126311597105E+01   .131886848851E+01
   .137633181772E+01   .143549298248E+01   .149633188186E+01   .155882072117E+01   .162292343267E+01
   .168859508975E+01   .175578131859E+01   .182441771210E+01   .189442925138E+01   .196572974067E+01
   .203822126243E+01   .211179365968E+01   .218632405344E+01   .226167640400E+01   .233770112491E+01
   .241423475950E+01   .249109973027E+01   .256810417178E+01   .264504185819E+01   .272169223696E+01
   .279782058021E+01   .287317826544E+01   .294750319715E+01   .302052038044E+01   .309194265750E+01
   .316147161666E+01   .322879868312E+01   .329360639899E+01   .335556989863E+01   .341435858370E+01
   .346963799983E+01   .352107191457E+01   .356832459326E+01   .361106326663E+01   .364896078013E+01
   .368169841153E+01   .370896883948E+01   .373047924128E+01   .374595449408E+01   .375514044920E+01
   .375780724509E+01   .375375261983E+01   .374280518040E+01   .372482758171E+01   .369971956525E+01
   .366742080426E+01   .362791350021E+01   .358122467382E+01   .352742809355E+01   .346664578522E+01
   .339904906800E+01   .332485906545E+01   .324434664489E+01   .315783174432E+01   .306568205413E+01
   .296831102995E+01   .286617522395E+01   .275977093447E+01   .264963018743E+01   .253631607809E+01
   .242041751766E+01   .230254344544E+01   .218331658354E+01   .206336682733E+01   .194332437785E+01
   .182381274100E+01   .170544171472E+01   .158880050993E+01   .147445114069E+01   .136292222279E+01
   .125470331188E+01   .115023989871E+01   .104992915545E+01   .954116492060E+00   .863092930985E+00
   .777093246588E+00   .696294757090E+00   .620816638218E+00   .550719698696E+00   .486006745643E+00
   .426623916802E+00   .372463504183E+00   .323368663209E+00   .279139964416E+00   .239543195086E+00
   .204317468497E+00   .173182769327E+00   .145846494262E+00   .122009020820E+00   .101368570213E+00
   .836255977702E-01   .684868026748E-01   .556687339940E-01   .449009229172E-01   .359284740988E-01
   .285140746905E-01   .224394102278E-01   .175060040292E-01   .135355187265E-01   .103695748506E-01
   .786915260934E-02   .591364975020E-02   .439967123087E-02   .323962578827E-02   .236020085325E-02
   .170078111056E-02   .121186792537E-02   .853547471704E-03   .594045345389E-03   .408395332007E-03
   .277240368983E-03   .185775024687E-03   .122831330663E-03   .801037312383E-04   .515043216509E-04
   .326363884425E-04   .203724167859E-04
 kinetic energy-density
   .532955807213E-01   .540205706616E-01   .547722478392E-01   .555517135887E-01   .563601491850E-01
   .571988017377E-01   .580689880635E-01   .589720973273E-01   .599095940565E-01   .608830213004E-01
   .618940040930E-01   .629442529804E-01   .640355679050E-01   .651698423542E-01   .663490677411E-01
   .675753381164E-01   .688508552289E-01   .701779339175E-01   .715590078974E-01   .729966359175E-01
   .744935083777E-01   .760524543607E-01   .776764491609E-01   .793686222735E-01   .811322659457E-01
   .829708442599E-01   .848880027939E-01   .868875788931E-01   .889736126049E-01   .911503582530E-01
   .934222967647E-01   .957941487592E-01   .982708883705E-01   .100857758005E+00   .103560283916E+00
   .106384292764E+00   .109335929155E+00   .112421674248E+00   .115648365476E+00   .119023217450E+00
   .122553844137E+00   .126248282351E+00   .130115016669E+00   .134163005840E+00   .138401710779E+00
   .142841124290E+00   .147491802475E+00   .152364898191E+00   .157472196329E+00   .162826151454E+00
   .168439927448E+00   .174327439850E+00   .180503400465E+00   .186983364828E+00   .193783782582E+00
   .200922050681E+00   .208416570161E+00   .216286805914E+00   .224553350521E+00   .233237991550E+00
   .242363783296E+00   .251955122523E+00   .262037829078E+00   .272639231179E+00   .283788255980E+00
   .295515525606E+00   .307853458954E+00   .320836379704E+00   .334500630828E+00   .348884696090E+00
   .364029328800E+00   .379977688433E+00   .396775485459E+00   .414471134974E+00   .433115919557E+00
   .452764161922E+00   .473473408160E+00   .495304621791E+00   .518322389680E+00   .542595140329E+00
   .568195375209E+00   .595199914122E+00   .623690155173E+00   .653752350630E+00   .685477898834E+00
   .718963654119E+00   .754312254945E+00   .791632471980E+00   .831039576244E+00   .872655730526E+00
   .916610402562E+00   .963040804090E+00   .101209235531E+01   .106391917711E+01   .111868461243E+01
   .117656177861E+01   .123773415216E+01   .130239618820E+01   .137075397625E+01   .144302593472E+01
   .151944354598E+01   .160025213461E+01   .168571169098E+01   .177609774301E+01   .187170227860E+01
   .197283472144E+01   .207982296365E+01   .219301445770E+01   .231277737157E+01   .243950180997E+01
   .257360110572E+01   .271551318482E+01   .286570200926E+01   .302465910161E+01   .319290515605E+01
   .337099173998E+01   .355950309131E+01   .375905801630E+01   .397031189301E+01   .419395878612E+01
   .443073367828E+01   .468141482455E+01   .494682623529E+01   .522784029453E+01   .552538052014E+01
   .584042447259E+01   .617400681977E+01   .652722256462E+01   .690123044424E+01   .729725650680E+01
   .771659787607E+01   .816062671058E+01   .863079436651E+01   .912863577327E+01   .965577403014E+01
   .102139252338E+02   .108049035457E+02   .114306265083E+02   .120931206211E+02   .127945271843E+02
   .135371084210E+02   .143232538877E+02   .151554871811E+02   .160364729531E+02   .169690242410E+02
   .179561101239E+02   .190008637122E+02   .201065904795E+02   .212767769455E+02   .225150997148E+02
   .238254348796E+02   .252118677913E+02   .266787032057E+02   .282304758039E+02   .298719610918E+02
   .316081866777E+02   .334444439258E+02   .353862999836E+02   .374396101739E+02   .396105307455E+02
   .419055319696E+02   .443314115657E+02   .468953084409E+02   .496047167162E+02   .524675000169E+02
   .554919059887E+02   .586865810095E+02   .620605850458E+02   .656234066089E+02   .693849777495E+02
   .733556890302E+02   .775464043971E+02   .819684758736E+02   .866337579780E+02   .915546217685E+02
   .967439683954E+02   .102215242038E+03   .107982442083E+03   .114060134397E+03   .120463461516E+03
   .127208151572E+03   .134310525764E+03   .141787504137E+03   .149656609450E+03   .157935968866E+03
   .166644313191E+03   .175800973371E+03   .185425873917E+03   .195539522925E+03   .206162998326E+03
   .217317929985E+03   .229026477228E+03   .241311301375E+03   .254195532823E+03   .267702732198E+03
   .281856845083E+03   .296682149797E+03   .312203197701E+03   .328444745462E+03   .345431678732E+03
   .363188926639E+03   .381741366540E+03   .401113718424E+03   .421330428409E+03   .442415540748E+03
   .464392557808E+03   .487284287484E+03   .511112677568E+03   .535898636616E+03   .561661840940E+03
   .588420527387E+03   .616191271692E+03   .644988752230E+03   .674825499185E+03   .705711629200E+03
   .737654565797E+03   .770658745967E+03   .804725313553E+03   .839851800254E+03   .876031795293E+03
   .913254605067E+03   .951504904362E+03   .990762381008E+03   .103100137618E+04   .107219052287E+04
   .111429238545E+04   .115726310350E+04   .120105204370E+04   .124560146359E+04   .129084619189E+04
   .133671332989E+04   .138312197938E+04   .142998300250E+04   .147719881949E+04   .152466325047E+04
   .157226140789E+04   .161986964607E+04   .166735557495E+04   .171457814473E+04   .176138780835E+04
   .180762676863E+04   .185312931642E+04   .189772226607E+04   .194122549371E+04   .198345258349E+04
   .202421158569E+04   .206330589018E+04   .210053521700E+04   .213569672495E+04   .216858623732E+04
   .219899958226E+04   .222673404372E+04   .225158991653E+04   .227337215748E+04   .229189212179E+04
   .230696937243E+04   .231843354711E+04   .232612626573E+04   .232990305882E+04   .232963529517E+04
   .232521208521E+04   .231654213438E+04   .230355551986E+04   .228620536203E+04   .226446936184E+04
   .223835117417E+04   .220788158781E+04   .217311948251E+04   .213415253506E+04   .209109764743E+04
   .204410107233E+04   .199333821376E+04   .193901308358E+04   .188135739848E+04   .182062930602E+04
   .175711173286E+04   .169111035384E+04   .162295118589E+04   .155297781738E+04   .148154829067E+04
   .140903166324E+04   .133580428167E+04   .126224581224E+04   .118873507723E+04   .111564580054E+04
   .104334219459E+04   .972174747616E+03   .902475983529E+03   .834556504451E+03   .768701335191E+03
   .705166689134E+03   .644177277570E+03   .585924312584E+03   .530564394027E+03   .478219504178E+03
   .428978305256E+03   .382898750697E+03   .340011596025E+03   .300323789355E+03   .263820298345E+03
   .230463266369E+03   .200188731532E+03   .172902844909E+03   .148480362653E+03   .126767390522E+03
   .107588271142E+03   .907544509077E+02   .760726014073E+02   .633504173410E+02   .524001100015E+02
   .430404409556E+02   .350980932873E+02   .284087987970E+02   .228183342126E+02   .181833598131E+02
   .143720450906E+02   .112644434187E+02   .875260471254E+01   .674043770626E+01   .514334865856E+01
   .388769191001E+01   .291007156436E+01   .215653420246E+01   .158169104272E+01   .114780500860E+01
   .823874180193E+00   .584738414580E+00   .410230804412E+00   .284390384711E+00   .194747360857E+00
   .131687353469E+00   .878969294607E-01   .578891464484E-01   .376050503557E-01   .240850449435E-01
   .152027566505E-01   .945336870830E-02
 pspotential
  -.106455265800E+03  -.106454371816E+03  -.106453504716E+03  -.106452663691E+03  -.106451847958E+03
  -.106451056756E+03  -.106450289347E+03  -.106449545015E+03  -.106448823067E+03  -.106448122828E+03
  -.106447443648E+03  -.106446784891E+03  -.106446145944E+03  -.106445526212E+03  -.106444925115E+03
  -.106444342094E+03  -.106443776604E+03  -.106443228120E+03  -.106442696128E+03  -.106442180134E+03
  -.106441679655E+03  -.106441194226E+03  -.106440723392E+03  -.106440266717E+03  -.106439823773E+03
  -.106439394147E+03  -.106438977440E+03  -.106438573262E+03  -.106438181236E+03  -.106437800996E+03
  -.106437432189E+03  -.106437074469E+03  -.106436727505E+03  -.106436390970E+03  -.106436064553E+03
  -.106435747949E+03  -.106435440861E+03  -.106435143004E+03  -.106434854100E+03  -.106434573879E+03
  -.106434302080E+03  -.106434038449E+03  -.106433782740E+03  -.106433534715E+03  -.106433294142E+03
  -.106433060796E+03  -.106432834460E+03  -.106432614923E+03  -.106432401979E+03  -.106432195430E+03
  -.106431995083E+03  -.106431800751E+03  -.106431612252E+03  -.106431429410E+03  -.106431252054E+03
  -.106431080018E+03  -.106430913143E+03  -.106430751270E+03  -.106430594250E+03  -.106430441936E+03
  -.106430294184E+03  -.106430150856E+03  -.106430011819E+03  -.106429876941E+03  -.106429746096E+03
  -.106429619163E+03  -.106429496021E+03  -.106429376554E+03  -.106429260652E+03  -.106429148204E+03
  -.106429039105E+03  -.106428933252E+03  -.106428830545E+03  -.106428730887E+03  -.106428634184E+03
  -.106428540345E+03  -.106428449281E+03  -.106428360904E+03  -.106428275132E+03  -.106428191883E+03
  -.106428111076E+03  -.106428032635E+03  -.106427956485E+03  -.106427882552E+03  -.106427810766E+03
  -.106427741056E+03  -.106427673355E+03  -.106427607597E+03  -.106427543719E+03  -.106427481656E+03
  -.106427421349E+03  -.106427362736E+03  -.106427305761E+03  -.106427250365E+03  -.106427196493E+03
  -.106427144089E+03  -.106427093101E+03  -.106427043476E+03  -.106426995161E+03  -.106426948106E+03
  -.106426902261E+03  -.106426857576E+03  -.106426814004E+03  -.106426771495E+03  -.106426730003E+03
  -.106426689480E+03  -.106426649880E+03  -.106426611156E+03  -.106426573262E+03  -.106426536152E+03
  -.106426499781E+03  -.106426464101E+03  -.106426429068E+03  -.106426394634E+03  -.106426360753E+03
  -.106426327378E+03  -.106426294462E+03  -.106426261956E+03  -.106426229812E+03  -.106426197980E+03
  -.106426166409E+03  -.106426135048E+03  -.106426103843E+03  -.106426072741E+03  -.106426041686E+03
  -.106426010620E+03  -.106425979485E+03  -.106425948218E+03  -.106425916758E+03  -.106425885038E+03
  -.106425852990E+03  -.106425820543E+03  -.106425787624E+03  -.106425754155E+03  -.106425720057E+03
  -.106425685244E+03  -.106425649630E+03  -.106425613121E+03  -.106425575620E+03  -.106425537027E+03
  -.106425497234E+03  -.106425456128E+03  -.106425413592E+03  -.106425369499E+03  -.106425323719E+03
  -.106425276112E+03  -.106425226531E+03  -.106425174822E+03  -.106425120820E+03  -.106425064352E+03
  -.106425005235E+03  -.106424943275E+03  -.106424878266E+03  -.106424809991E+03  -.106424738219E+03
  -.106424662705E+03  -.106424583191E+03  -.106424499402E+03  -.106424411047E+03  -.106424317818E+03
  -.106424219385E+03  -.106424115403E+03  -.106424005501E+03  -.106423889288E+03  -.106423766348E+03
  -.106423636241E+03  -.106423498497E+03  -.106423352619E+03  -.106423198079E+03  -.106423034316E+03
  -.106422860732E+03  -.106422676697E+03  -.106422481536E+03  -.106422274535E+03  -.106422054937E+03
  -.106421821933E+03  -.106421574669E+03  -.106421312233E+03  -.106421033658E+03  -.106420737917E+03
  -.106420423919E+03  -.106420090501E+03  -.106419736432E+03  -.106419360401E+03  -.106418961016E+03
  -.106418536797E+03  -.106418086171E+03  -.106417607468E+03  -.106417098910E+03  -.106416558610E+03
  -.106415984562E+03  -.106415374635E+03  -.106414726561E+03  -.106414037933E+03  -.106413306191E+03
  -.106412528615E+03  -.106411702313E+03  -.106410824214E+03  -.106409891051E+03  -.106408899354E+03
  -.106407845433E+03  -.106406725368E+03  -.106405534993E+03  -.106404269878E+03  -.106402925319E+03
  -.106401496312E+03  -.106399977541E+03  -.106398363358E+03  -.106396647757E+03  -.106394824358E+03
  -.106392886378E+03  -.106390826612E+03  -.106388637400E+03  -.106386310602E+03  -.106383837569E+03
  -.106381209110E+03  -.106378415456E+03  -.106375446228E+03  -.106372290396E+03  -.106368936240E+03
  -.106365371305E+03  -.106361582359E+03  -.106357555341E+03  -.106353275312E+03  -.106348726398E+03
  -.106343891735E+03  -.106338753406E+03  -.106333292377E+03  -.106327488425E+03  -.106321320069E+03
  -.106314764489E+03  -.106307797447E+03  -.106300393197E+03  -.106292524392E+03  -.106284161990E+03
  -.106275275145E+03  -.106265831104E+03  -.106255795084E+03  -.106245130152E+03  -.106233797096E+03
  -.106221754286E+03  -.106208957525E+03  -.106195359903E+03  -.106180911627E+03  -.106165559852E+03
  -.106149248500E+03  -.106131918067E+03  -.106113505422E+03  -.106093943594E+03  -.106073161548E+03
  -.106051083944E+03  -.106027630896E+03  -.106002717701E+03  -.105976254569E+03  -.105948146332E+03
  -.105918292138E+03  -.105886585131E+03  -.105852912117E+03  -.105817153212E+03  -.105779181469E+03
  -.105738862498E+03  -.105696054053E+03  -.105650605611E+03  -.105602357929E+03  -.105551142575E+03
  -.105496781442E+03  -.105439086237E+03  -.105377857946E+03  -.105312886269E+03  -.105243949031E+03
  -.105170811563E+03  -.105093226043E+03  -.105010930807E+03  -.104923649617E+03  -.104831090880E+03
  -.104732946827E+03  -.104628892621E+03  -.104518585419E+03  -.104401663349E+03  -.104277744424E+03
  -.104146425359E+03  -.104007280303E+03  -.103859859475E+03  -.103703687686E+03  -.103538262773E+03
  -.103363053917E+03  -.103177499884E+03  -.102981007186E+03  -.102772948213E+03  -.102552659371E+03
  -.102319439311E+03  -.102072547329E+03  -.101811202079E+03  -.101534580754E+03  -.101241818940E+03
  -.100932011391E+03  -.100604214002E+03  -.100257447322E+03  -.998907019350E+02  -.995029460926E+02
  -.990931359308E+02  -.986602285648E+02  -.982031982611E+02  -.977210557282E+02  -.972128703619E+02
  -.966777950135E+02  -.961150925380E+02  -.955241630360E+02  -.949045703672E+02  -.942560662127E+02
  -.935786097511E+02  -.928723809220E+02  -.921377853161E+02  -.913754489634E+02  -.905862016826E+02
  -.897710481657E+02  -.889311265601E+02  -.880676549190E+02  -.871818664833E+02  -.862749353370E+02
  -.853478945798E+02  -.844015498812E+02  -.834363922279E+02  -.824525149645E+02  -.814495419356E+02
  -.804265756856E+02  -.793821773395E+02  -.783143932711E+02  -.772084941674E+02  -.761164814644E+02
  -.750111727854E+02  -.738685641877E+02  -.726911930086E+02  -.715228356567E+02  -.703252371373E+02
  -.690945353045E+02  -.678379967399E+02
 core charge-density (pseudized)
   .000000000000E+00   .000000000000E+00   .000000000000E+00   .000000000000E+00   .000000000000E+00
   .000000000000E+00   .000000000000E+00   .000000000000E+00   .000000000000E+00   .000000000000E+00
   .000000000000E+00   .000000000000E+00   .000000000000E+00   .000000000000E+00   .000000000000E+00
   .000000000000E+00   .000000000000E+00   .000000000000E+00   .000000000000E+00   .000000000000E+00
   .000000000000E+00   .000000000000E+00   .000000000000E+00   .000000000000E+00   .000000000000E+00
   .000000000000E+00   .000000000000E+00   .000000000000E+00   .000000000000E+00   .000000000000E+00
   .000000000000E+00   .000000000000E+00   .000000000000E+00   .000000000000E+00   .000000000000E+00
   .000000000000E+00   .000000000000E+00   .000000000000E+00   .000000000000E+00   .000000000000E+00
   .000000000000E+00   .000000000000E+00   .000000000000E+00   .000000000000E+00   .000000000000E+00
   .000000000000E+00   .000000000000E+00   .000000000000E+00   .000000000000E+00   .000000000000E+00
   .000000000000E+00   .000000000000E+00   .000000000000E+00   .000000000000E+00   .000000000000E+00
   .000000000000E+00   .000000000000E+00   .000000000000E+00   .000000000000E+00   .000000000000E+00
   .000000000000E+00   .000000000000E+00   .000000000000E+00   .000000000000E+00   .000000000000E+00
   .000000000000E+00   .000000000000E+00   .000000000000E+00   .000000000000E+00   .000000000000E+00
   .000000000000E+00   .000000000000E+00   .000000000000E+00   .000000000000E+00   .000000000000E+00
   .000000000000E+00   .000000000000E+00   .000000000000E+00   .000000000000E+00   .000000000000E+00
   .000000000000E+00   .000000000000E+00   .000000000000E+00   .000000000000E+00   .000000000000E+00
   .000000000000E+00   .000000000000E+00   .000000000000E+00   .000000000000E+00   .000000000000E+00
   .000000000000E+00   .000000000000E+00   .000000000000E+00   .000000000000E+00   .000000000000E+00
   .000000000000E+00   .000000000000E+00   .000000000000E+00   .000000000000E+00   .000000000000E+00
   .000000000000E+00   .000000000000E+00   .000000000000E+00   .000000000000E+00   .000000000000E+00
   .000000000000E+00   .000000000000E+00   .000000000000E+00   .000000000000E+00   .000000000000E+00
   .000000000000E+00   .000000000000E+00   .000000000000E+00   .000000000000E+00   .000000000000E+00
   .000000000000E+00   .000000000000E+00   .000000000000E+00   .000000000000E+00   .000000000000E+00
   .000000000000E+00   .000000000000E+00   .000000000000E+00   .000000000000E+00   .000000000000E+00
   .000000000000E+00   .000000000000E+00   .000000000000E+00   .000000000000E+00   .000000000000E+00
   .000000000000E+00   .000000000000E+00   .000000000000E+00   .000000000000E+00   .000000000000E+00
   .000000000000E+00   .000000000000E+00   .000000000000E+00   .000000000000E+00   .000000000000E+00
   .000000000000E+00   .000000000000E+00   .000000000000E+00   .000000000000E+00   .000000000000E+00
   .000000000000E+00   .000000000000E+00   .000000000000E+00   .000000000000E+00   .000000000000E+00
   .000000000000E+00   .000000000000E+00   .000000000000E+00   .000000000000E+00   .000000000000E+00
   .000000000000E+00   .000000000000E+00   .000000000000E+00   .000000000000E+00   .000000000000E+00
   .000000000000E+00   .000000000000E+00   .000000000000E+00   .000000000000E+00   .000000000000E+00
   .000000000000E+00   .000000000000E+00   .000000000000E+00   .000000000000E+00   .000000000000E+00
   .000000000000E+00   .000000000000E+00   .000000000000E+00   .000000000000E+00   .000000000000E+00
   .000000000000E+00   .000000000000E+00   .000000000000E+00   .000000000000E+00   .000000000000E+00
   .000000000000E+00   .000000000000E+00   .000000000000E+00   .000000000000E+00   .000000000000E+00
   .000000000000E+00   .000000000000E+00   .000000000000E+00   .000000000000E+00   .000000000000E+00
   .000000000000E+00   .000000000000E+00   .000000000000E+00   .000000000000E+00   .000000000000E+00
   .000000000000E+00   .000000000000E+00   .000000000000E+00   .000000000000E+00   .000000000000E+00
   .000000000000E+00   .000000000000E+00   .000000000000E+00   .000000000000E+00   .000000000000E+00
   .000000000000E+00   .000000000000E+00   .000000000000E+00   .000000000000E+00   .000000000000E+00
   .000000000000E+00   .000000000000E+00   .000000000000E+00   .000000000000E+00   .000000000000E+00
   .000000000000E+00   .000000000000E+00   .000000000000E+00   .000000000000E+00   .000000000000E+00
   .000000000000E+00   .000000000000E+00   .000000000000E+00   .000000000000E+00   .000000000000E+00
   .000000000000E+00   .000000000000E+00   .000000000000E+00   .000000000000E+00   .000000000000E+00
   .000000000000E+00   .000000000000E+00   .000000000000E+00   .000000000000E+00   .000000000000E+00
   .000000000000E+00   .000000000000E+00   .000000000000E+00   .000000000000E+00   .000000000000E+00
   .000000000000E+00   .000000000000E+00   .000000000000E+00   .000000000000E+00   .000000000000E+00
   .000000000000E+00   .000000000000E+00   .000000000000E+00   .000000000000E+00   .000000000000E+00
   .000000000000E+00   .000000000000E+00   .000000000000E+00   .000000000000E+00   .000000000000E+00
   .000000000000E+00   .000000000000E+00   .000000000000E+00   .000000000000E+00   .000000000000E+00
   .000000000000E+00   .000000000000E+00   .000000000000E+00   .000000000000E+00   .000000000000E+00
   .000000000000E+00   .000000000000E+00   .000000000000E+00   .000000000000E+00   .000000000000E+00
   .000000000000E+00   .000000000000E+00   .000000000000E+00   .000000000000E+00   .000000000000E+00
   .000000000000E+00   .000000000000E+00   .000000000000E+00   .000000000000E+00   .000000000000E+00
   .000000000000E+00   .000000000000E+00   .000000000000E+00   .000000000000E+00   .000000000000E+00
   .000000000000E+00   .000000000000E+00   .000000000000E+00   .000000000000E+00   .000000000000E+00
   .000000000000E+00   .000000000000E+00   .000000000000E+00   .000000000000E+00   .000000000000E+00
   .000000000000E+00   .000000000000E+00   .000000000000E+00   .000000000000E+00   .000000000000E+00
   .000000000000E+00   .000000000000E+00   .000000000000E+00   .000000000000E+00   .000000000000E+00
   .000000000000E+00   .000000000000E+00   .000000000000E+00   .000000000000E+00   .000000000000E+00
   .000000000000E+00   .000000000000E+00   .000000000000E+00   .000000000000E+00   .000000000000E+00
   .000000000000E+00   .000000000000E+00   .000000000000E+00   .000000000000E+00   .000000000000E+00
   .000000000000E+00   .000000000000E+00   .000000000000E+00   .000000000000E+00   .000000000000E+00
   .000000000000E+00   .000000000000E+00   .000000000000E+00   .000000000000E+00   .000000000000E+00
   .000000000000E+00   .000000000000E+00   .000000000000E+00   .000000000000E+00   .000000000000E+00
   .000000000000E+00   .000000000000E+00
 pseudo wavefunction
   .121052324510E-03   .124805588816E-03   .128675224228E-03   .132664838866E-03   .136778152724E-03
   .141019001134E-03   .145391338342E-03   .149899241200E-03   .154546912961E-03   .159338687203E-03
   .164279031867E-03   .169372553424E-03   .174624001169E-03   .180038271653E-03   .185620413244E-03
   .191375630836E-03   .197309290704E-03   .203426925503E-03   .209734239432E-03   .216237113551E-03
   .222941611262E-03   .229853983965E-03   .236980676887E-03   .244328335092E-03   .251903809673E-03
   .259714164147E-03   .267766681036E-03   .276068868657E-03   .284628468127E-03   .293453460577E-03
   .302552074596E-03   .311932793903E-03   .321604365255E-03   .331575806608E-03   .341856415520E-03
   .352455777823E-03   .363383776561E-03   .374650601203E-03   .386266757146E-03   .398243075510E-03
   .410590723238E-03   .423321213505E-03   .436446416455E-03   .449978570271E-03   .463930292582E-03
   .478314592231E-03   .493144881404E-03   .508434988134E-03   .524199169195E-03   .540452123399E-03
   .557209005294E-03   .574485439302E-03   .592297534281E-03   .610661898551E-03   .629595655373E-03
   .649116458921E-03   .669242510741E-03   .689992576719E-03   .711386004584E-03   .733442741942E-03
   .756183354882E-03   .779629047145E-03   .803801679901E-03   .828723792125E-03   .854418621621E-03
   .880910126681E-03   .908223008428E-03   .936382733849E-03   .965415559534E-03   .995348556165E-03
   .102620963375E-02   .105802756765E-02   .109083202541E-02   .112465359441E-02   .115952381041E-02
   .119547518692E-02   .123254124554E-02   .127075654720E-02   .131015672439E-02   .135077851440E-02
   .139265979354E-02   .143583961247E-02   .148035823261E-02   .152625716370E-02   .157357920245E-02
   .162236847248E-02   .167267046548E-02   .172453208356E-02   .177800168303E-02   .183312911947E-02
   .188996579420E-02   .194856470224E-02   .200898048166E-02   .207126946458E-02   .213548972965E-02
   .220170115620E-02   .226996548009E-02   .234034635125E-02   .241290939301E-02   .248772226330E-02
   .256485471770E-02   .264437867450E-02   .272636828172E-02   .281089998625E-02   .289805260509E-02
   .298790739888E-02   .308054814757E-02   .317606122860E-02   .327453569736E-02   .337606337021E-02
   .348073891012E-02   .358865991482E-02   .369992700786E-02   .381464393232E-02   .393291764756E-02
   .405485842889E-02   .418057997033E-02   .431019949062E-02   .444383784240E-02   .458161962490E-02
   .472367330000E-02   .487013131196E-02   .502113021085E-02   .517681077977E-02   .533731816603E-02
   .550280201637E-02   .567341661641E-02   .584932103437E-02   .603067926924E-02   .621766040359E-02
   .641043876100E-02   .660919406849E-02   .681411162386E-02   .702538246826E-02   .724320356412E-02
   .746777797850E-02   .769931507218E-02   .793803069454E-02   .818414738453E-02   .843789457774E-02
   .869950881997E-02   .896923398734E-02   .924732151315E-02   .953403062187E-02   .982962857020E-02
   .101343908956E-01   .104486016727E-01   .107725537769E-01   .111065491575E-01   .114508991172E-01
   .118059246024E-01   .121719565005E-01   .125493359479E-01   .129384146463E-01   .133395551893E-01
   .137531313988E-01   .141795286721E-01   .146191443389E-01   .150723880302E-01   .155396820573E-01
   .160214618035E-01   .165181761272E-01   .170302877774E-01   .175582738216E-01   .181026260872E-01
   .186638516162E-01   .192424731332E-01   .198390295283E-01   .204540763545E-01   .210881863391E-01
   .217419499126E-01   .224159757510E-01   .231108913370E-01   .238273435357E-01   .245659991892E-01
   .253275457284E-01   .261126918025E-01   .269221679286E-01   .277567271587E-01   .286171457681E-01
   .295042239634E-01   .304187866110E-01   .313616839872E-01   .323337925507E-01   .333360157366E-01
   .343692847737E-01   .354345595261E-01   .365328293572E-01   .376651140203E-01   .388324645728E-01
   .400359643169E-01   .412767297665E-01   .425559116408E-01   .438746958854E-01   .452343047211E-01
   .466359977212E-01   .480810729174E-01   .495708679356E-01   .511067611610E-01   .526901729330E-01
   .543225667715E-01   .560054506335E-01   .577403782008E-01   .595289501989E-01   .613728157481E-01
   .632736737450E-01   .652332742765E-01   .672534200650E-01   .693359679442E-01   .714828303671E-01
   .736959769429E-01   .759774360049E-01   .783292962072E-01   .807537081490E-01   .832528860266E-01
   .858291093106E-01   .884847244467E-01   .912221465794E-01   .940438612944E-01   .969524263790E-01
   .999504735966E-01   .103040710471E+00   .106225922082E+00   .109508972853E+00   .112892808354E+00
   .116380457078E+00   .119975032217E+00   .123679733410E+00   .127497848466E+00   .131432755049E+00
   .135487922315E+00   .139666912491E+00   .143973382387E+00   .148411084826E+00   .152983869971E+00
   .157695686545E+00   .162550582918E+00   .167552708043E+00   .172706312216E+00   .178015747650E+00
   .183485468814E+00   .189120032532E+00   .194924097791E+00   .200902425238E+00   .207059876319E+00
   .213401412022E+00   .219932091181E+00   .226657068280E+00   .233581590726E+00   .240710995507E+00
   .248050705184E+00   .255606223149E+00   .263383128070E+00   .271387067434E+00   .279623750111E+00
   .288098937841E+00   .296818435529E+00   .305788080245E+00   .315013728810E+00   .324501243831E+00
   .334256478046E+00   .344285256835E+00   .354593358731E+00   .365186493763E+00   .376070279443E+00
   .387250214214E+00   .398731648148E+00   .410519750679E+00   .422619475139E+00   .435035519877E+00
   .447772285693E+00   .460833829349E+00   .474223812884E+00   .487945448468E+00   .502001438532E+00
   .516393910884E+00   .531124348571E+00   .546193514201E+00   .561601368496E+00   .577346982847E+00
   .593428445668E+00   .609842762392E+00   .626585748984E+00   .643651918930E+00   .661034363690E+00
   .678724626742E+00   .696712571408E+00   .714986242788E+00   .733531724292E+00   .752332989392E+00
   .771371749455E+00   .790627298695E+00   .810076357567E+00   .829692916186E+00   .849448079667E+00
   .869309917625E+00   .889243320424E+00   .909209865158E+00   .929167694744E+00   .949071413897E+00
   .968872006174E+00   .988516776605E+00   .100794932478E+01   .102710955349E+01   .104593371802E+01
   .106435452146E+01   .108230126065E+01   .109970002722E+01   .111647396719E+01   .113254360088E+01
   .114782720355E+01   .116224124402E+01   .117570087540E+01   .118812046806E+01   .119941416901E+01
   .120949646640E+01   .121828272955E+01   .122568968673E+01   .123163579299E+01   .123604142967E+01
   .123882886587E+01   .123992190088E+01   .123924509600E+01   .123672249502E+01   .123227572715E+01
   .122582138576E+01   .121726758276E+01   .120650959616E+01   .119342455898E+01   .117785650617E+01
   .115980407378E+01   .113935785774E+01   .111664160802E+01   .109179088500E+01   .106495196327E+01
   .103628065227E+01   .100594104726E+01
 ae wavefunction
  -.597520737029E-03  -.616014834872E-03  -.635081121050E-03  -.654737284352E-03  -.675001559522E-03
  -.695892744057E-03  -.717430215506E-03  -.739633949310E-03  -.762524537174E-03  -.786123206011E-03
  -.810451837452E-03  -.835532987960E-03  -.861389909552E-03  -.888046571153E-03  -.915527680598E-03
  -.943858707309E-03  -.973065905652E-03  -.100317633901E-02  -.103421790460E-02  -.106621935899E-02
  -.109921034448E-02  -.113322141619E-02  -.116828407002E-02  -.120443077147E-02  -.124169498526E-02
  -.128011120594E-02  -.131971498934E-02  -.136054298500E-02  -.140263296964E-02  -.144602388151E-02
  -.149075585586E-02  -.153687026151E-02  -.158440973839E-02  -.163341823634E-02  -.168394105501E-02
  -.173602488491E-02  -.178971784981E-02  -.184506955030E-02  -.190213110868E-02  -.196095521519E-02
  -.202159617565E-02  -.208410996044E-02  -.214855425501E-02  -.221498851184E-02  -.228347400396E-02
  -.235407388005E-02  -.242685322113E-02  -.250187909902E-02  -.257922063635E-02  -.265894906854E-02
  -.274113780742E-02  -.282586250679E-02  -.291320112992E-02  -.300323401895E-02  -.309604396638E-02
  -.319171628853E-02  -.329033890128E-02  -.339200239787E-02  -.349680012897E-02  -.360482828512E-02
  -.371618598146E-02  -.383097534491E-02  -.394930160383E-02  -.407127318028E-02  -.419700178481E-02
  -.432660251403E-02  -.446019395083E-02  -.459789826753E-02  -.473984133181E-02  -.488615281566E-02
  -.503696630737E-02  -.519241942658E-02  -.535265394253E-02  -.551781589555E-02  -.568805572191E-02
  -.586352838201E-02  -.604439349209E-02  -.623081545952E-02  -.642296362162E-02  -.662101238832E-02
  -.682514138853E-02  -.703553562035E-02  -.725238560533E-02  -.747588754666E-02  -.770624349147E-02
  -.794366149740E-02  -.818835580325E-02  -.844054700419E-02  -.870046223115E-02  -.896833533485E-02
  -.924440707431E-02  -.952892531003E-02  -.982214520178E-02  -.101243294112E-01  -.104357483093E-01
  -.107566801887E-01  -.110874114808E-01  -.114282369781E-01  -.117794600613E-01  -.121413929319E-01
  -.125143568493E-01  -.128986823738E-01  -.132947096139E-01  -.137027884795E-01  -.141232789401E-01
  -.145565512880E-01  -.150029864066E-01  -.154629760445E-01  -.159369230941E-01  -.164252418753E-01
  -.169283584247E-01  -.174467107893E-01  -.179807493252E-01  -.185309370012E-01  -.190977497066E-01
  -.196816765642E-01  -.202832202471E-01  -.209028972994E-01  -.215412384616E-01  -.221987889989E-01
  -.228761090336E-01  -.235737738797E-01  -.242923743814E-01  -.250325172529E-01  -.257948254211E-01
  -.265799383690E-01  -.273885124812E-01  -.282212213885E-01  -.290787563142E-01  -.299618264178E-01
  -.308711591389E-01  -.318075005381E-01  -.327716156348E-01  -.337642887420E-01  -.347863237951E-01
  -.358385446760E-01  -.369217955294E-01  -.380369410714E-01  -.391848668884E-01  -.403664797251E-01
  -.415827077607E-01  -.428345008702E-01  -.441228308711E-01  -.454486917519E-01  -.468130998811E-01
  -.482170941953E-01  -.496617363628E-01  -.511481109214E-01  -.526773253869E-01  -.542505103313E-01
  -.558688194249E-01  -.575334294425E-01  -.592455402279E-01  -.610063746141E-01  -.628171782964E-01
  -.646792196524E-01  -.665937895071E-01  -.685622008361E-01  -.705857884052E-01  -.726659083384E-01
  -.748039376113E-01  -.770012734632E-01  -.792593327228E-01  -.815795510400E-01  -.839633820196E-01
  -.864122962467E-01  -.889277802005E-01  -.915113350453E-01  -.941644752932E-01  -.968887273285E-01
  -.996856277863E-01  -.102556721775E+00  -.105503560933E+00  -.108527701313E+00  -.111630701071E+00
  -.114814117975E+00  -.118079506685E+00  -.121428415828E+00  -.124862384832E+00  -.128382940516E+00
  -.131991593419E+00  -.135689833858E+00  -.139479127696E+00  -.143360911804E+00  -.147336589214E+00
  -.151407523923E+00  -.155575035361E+00  -.159840392479E+00  -.164204807465E+00  -.168669429044E+00
  -.173235335369E+00  -.177903526470E+00  -.182674916242E+00  -.187550323970E+00  -.192530465345E+00
  -.197615942984E+00  -.202807236404E+00  -.208104691461E+00  -.213508509213E+00  -.219018734201E+00
  -.224635242131E+00  -.230357726938E+00  -.236185687210E+00  -.242118411975E+00  -.248154965819E+00
  -.254294173335E+00  -.260534602895E+00  -.266874549721E+00  -.273312018268E+00  -.279844703909E+00
  -.286469973921E+00  -.293184847772E+00  -.299985976721E+00  -.306869622745E+00  -.313831636798E+00
  -.320867436428E+00  -.327971982785E+00  -.335139757031E+00  -.342364736213E+00  -.349640368627E+00
  -.356959548737E+00  -.364314591695E+00  -.371697207546E+00  -.379098475184E+00  -.386508816155E+00
  -.393917968397E+00  -.401314960036E+00  -.408688083349E+00  -.416024869035E+00  -.423312060933E+00
  -.430535591355E+00  -.437680557200E+00  -.444731197039E+00  -.451670869384E+00  -.458482032335E+00
  -.465146224877E+00  -.471644050039E+00  -.477955160211E+00  -.484058244892E+00  -.489931021166E+00
  -.495550227230E+00  -.500891619310E+00  -.505929972305E+00  -.510639084533E+00  -.514991786958E+00
  -.518959957286E+00  -.522514539352E+00  -.525625568199E+00  -.528262201296E+00  -.530392756321E+00
  -.531984755958E+00  -.533004980157E+00  -.533419526305E+00  -.533193877757E+00  -.532292981162E+00
  -.530681333023E+00  -.528323075905E+00  -.525182104684E+00  -.521222183211E+00  -.516407071726E+00
  -.510700665319E+00  -.504067143693E+00  -.496471132405E+00  -.487877875730E+00  -.478253421166E+00
  -.467564815560E+00  -.455780312685E+00  -.442869592018E+00  -.428803988313E+00  -.413556731446E+00
  -.397103195830E+00  -.379421158553E+00  -.360491065208E+00  -.340296302214E+00  -.318823474239E+00
  -.296062685183E+00  -.272007821000E+00  -.246656832508E+00  -.220012016240E+00  -.192080291270E+00
  -.162873469927E+00  -.132408520268E+00  -.100707818152E+00  -.677993867027E-01  -.337171208218E-01
   .149900587593E-02   .378027548766E-01   .751414614371E-01   .113455903761E+00   .152680210710E+00
   .192741819571E+00   .233561500197E+00   .275053467550E+00   .317125609833E+00   .359679859700E+00
   .402612723554E+00   .445815947236E+00   .489177227382E+00   .532580786825E+00   .575907566566E+00
   .619034824821E+00   .661835133970E+00   .704175088578E+00   .745914315462E+00   .786905395754E+00
   .826994971469E+00   .866025783091E+00   .903839034545E+00   .940276532166E+00   .975182362464E+00
   .100840416780E+01   .103979419983E+01   .106921031168E+01   .109651698096E+01   .112158639312E+01
   .114429957418E+01   .116454754177E+01   .118223243614E+01   .119726859418E+01   .120958353433E+01
   .121911882731E+01   .122583083392E+01   .122969129705E+01   .123068777947E+01   .122882394266E+01
   .122411966470E+01   .121661099761E+01   .120634996663E+01   .119340421583E+01   .117785650617E+01
   .115980407378E+01   .113935785774E+01   .111664160802E+01   .109179088500E+01   .106495196327E+01
   .103628065227E+01   .100594104726E+01
 pseudo wavefunction
   .749153966334E-05   .772381713833E-05   .796329644722E-05   .821020088506E-05   .846476067022E-05
   .872721315907E-05   .899780306726E-05   .927678269795E-05   .956441217700E-05   .986095969559E-05
   .101667017602E-04   .104819234506E-04   .108069186852E-04   .111419904960E-04   .114874513100E-04
   .118436232415E-04   .122108383919E-04   .125894391595E-04   .129797785587E-04   .133822205493E-04
   .137971403759E-04   .142249249173E-04   .146659730479E-04   .151206960093E-04   .155895177936E-04
   .160728755389E-04   .165712199370E-04   .170850156536E-04   .176147417612E-04   .181608921864E-04
   .187239761697E-04   .193045187413E-04   .199030612096E-04   .205201616666E-04   .211563955081E-04
   .218123559703E-04   .224886546825E-04   .231859222381E-04   .239048087820E-04   .246459846169E-04
   .254101408286E-04   .261979899301E-04   .270102665259E-04   .278477279973E-04   .287111552082E-04
   .296013532334E-04   .305191521091E-04   .314654076072E-04   .324410020326E-04   .334468450465E-04
   .344838745142E-04   .355530573796E-04   .366553905671E-04   .377919019105E-04   .389636511120E-04
   .401717307298E-04   .414172671973E-04   .427014218727E-04   .440253921224E-04   .453904124372E-04
   .467977555834E-04   .482487337894E-04   .497446999692E-04   .512870489841E-04   .528772189429E-04
   .545166925430E-04   .562069984526E-04   .579497127362E-04   .597464603242E-04   .615989165274E-04
   .635088085997E-04   .654779173479E-04   .675080787925E-04   .696011858792E-04   .717591902442E-04
   .739841040332E-04   .762780017779E-04   .786430223302E-04   .810813708558E-04   .835953208906E-04
   .861872164603E-04   .888594742657E-04   .916145859356E-04   .944551203501E-04   .973837260355E-04
   .100403133633E-03   .103516158446E-03   .106725703061E-03   .110034760059E-03   .113446414800E-03
   .116963848304E-03   .120590340212E-03   .124329271847E-03   .128184129363E-03   .132158506998E-03
   .136256110421E-03   .140480760189E-03   .144836395307E-03   .149327076901E-03   .153956992000E-03
   .158730457444E-03   .163651923901E-03   .168725980022E-03   .173957356712E-03   .179350931544E-03
   .184911733300E-03   .190644946661E-03   .196555917039E-03   .202650155553E-03   .208933344172E-03
   .215411341003E-03   .222090185754E-03   .228976105359E-03   .236075519779E-03   .243395047985E-03
   .250941514122E-03   .258721953868E-03   .266743620986E-03   .275013994082E-03   .283540783567E-03
   .292331938842E-03   .301395655696E-03   .310740383941E-03   .320374835278E-03   .330307991406E-03
   .340549112385E-03   .351107745255E-03   .361993732919E-03   .373217223305E-03   .384788678806E-03
   .396718886016E-03   .409018965761E-03   .421700383446E-03   .434774959710E-03   .448254881425E-03
   .462152713016E-03   .476481408146E-03   .491254321747E-03   .506485222429E-03   .522188305272E-03
   .538378205000E-03   .555070009572E-03   .572279274183E-03   .590022035697E-03   .608314827520E-03
   .627174694929E-03   .646619210875E-03   .666666492260E-03   .687335216717E-03   .708644639903E-03
   .730614613314E-03   .753265602647E-03   .776618706718E-03   .800695676956E-03   .825518937487E-03
   .851111605826E-03   .877497514199E-03   .904701231500E-03   .932748085921E-03   .961664188254E-03
   .991476455895E-03   .102221263757E-02   .105390133881E-02   .108657204815E-02   .112025516414E-02
   .115498202318E-02   .119078492810E-02   .122769717767E-02   .126575309691E-02   .130498806835E-02
   .134543856412E-02   .138714217909E-02   .143013766484E-02   .147446496470E-02   .152016524975E-02
   .156728095587E-02   .161585582184E-02   .166593492849E-02   .171756473894E-02   .177079314004E-02
   .182566948483E-02   .188224463625E-02   .194057101199E-02   .200070263058E-02   .206269515869E-02
   .212660595962E-02   .219249414316E-02   .226042061662E-02   .233044813717E-02   .240264136555E-02
   .247706692101E-02   .255379343757E-02   .263289162165E-02   .271443431098E-02   .279849653486E-02
   .288515557564E-02   .297449103161E-02   .306658488112E-02   .316152154787E-02   .325938796757E-02
   .336027365564E-02   .346427077614E-02   .357147421169E-02   .368198163445E-02   .379589357801E-02
   .391331351007E-02   .403434790594E-02   .415910632249E-02   .428770147268E-02   .442024930032E-02
   .455686905494E-02   .469768336658E-02   .484281832021E-02   .499240352958E-02   .514657221014E-02
   .530546125076E-02   .546921128382E-02   .563796675327E-02   .581187598023E-02   .599109122560E-02
   .617576874901E-02   .636606886367E-02   .656215598618E-02   .676419868077E-02   .697236969677E-02
   .718684599872E-02   .740780878775E-02   .763544351321E-02   .786993987324E-02   .811149180272E-02
   .836029744722E-02   .861655912101E-02   .888048324732E-02   .915228027866E-02   .943216459493E-02
   .972035437665E-02   .100170714506E-01   .103225411047E-01   .106369918686E-01   .109606552563E-01
   .112937654671E-01   .116365590391E-01   .119892744520E-01   .123521516718E-01   .127254316337E-01
   .131093556539E-01   .135041647654E-01   .139100989685E-01   .143273963880E-01   .147562923274E-01
   .151970182087E-01   .156498003886E-01   .161148588359E-01   .165924056589E-01   .170826434653E-01
   .175857635404E-01   .181019438244E-01   .186313466694E-01   .191741163544E-01   .197303763356E-01
   .203002262054E-01   .208837383323E-01   .214809541521E-01   .220918800752E-01   .227164829750E-01
   .233546852175E-01   .240063591882E-01   .246713212690E-01   .253493252149E-01   .260400548731E-01
   .267431161845E-01   .274580284010E-01   .281842144471E-01   .289209903469E-01   .296675536323E-01
   .304229706408E-01   .311861626020E-01   .319558904069E-01   .327307379410E-01   .335090938577E-01
   .342891316546E-01   .350687879062E-01   .358457384962E-01   .366173726801E-01   .373807647954E-01
   .381326434266E-01   .388693578164E-01   .395868413023E-01   .402805715446E-01   .409455272961E-01
   .415761414522E-01   .421662501060E-01   .427090373221E-01   .431969753302E-01   .436217598326E-01
   .439742401142E-01   .442443436401E-01   .444209948310E-01   .444920277162E-01   .444440921827E-01
   .442625535694E-01   .439313854003E-01   .434330551140E-01   .427484027319E-01   .418565125243E-01
   .407345778846E-01   .393577598199E-01   .376990397196E-01   .357290673897E-01   .334160057514E-01
   .307253741230E-01   .276198926529E-01   .240593312867E-01   .200003676562E-01   .153964595246E-01
   .101977389494E-01   .435093719214E-02  -.220064832746E-02  -.951713100264E-02  -.176619386281E-01
  -.267016224118E-01  -.367055456440E-01  -.477454209460E-01  -.598946589318E-01  -.732274842538E-01
  -.878177674327E-01  -.103737512745E+00  -.121054934038E+00  -.139832042132E+00  -.160091921596E+00
  -.181957508501E+00  -.205476527333E+00  -.230732902009E+00  -.257815937118E+00  -.286821237265E+00
  -.317851796637E+00  -.351019286889E+00
 ae wavefunction
  -.233161820193E-04  -.240378502020E-04  -.247818460439E-04  -.255488597881E-04  -.263396029812E-04
  -.271548091294E-04  -.279952343735E-04  -.288616581846E-04  -.297548840814E-04  -.306757403692E-04
  -.316250809016E-04  -.326037858646E-04  -.336127625859E-04  -.346529463681E-04  -.357253013467E-04
  -.368308213754E-04  -.379705309378E-04  -.391454860860E-04  -.403567754093E-04  -.416055210306E-04
  -.428928796345E-04  -.442200435254E-04  -.455882417183E-04  -.469987410623E-04  -.484528473984E-04
  -.499519067518E-04  -.514973065608E-04  -.530904769420E-04  -.547328919944E-04  -.564260711422E-04
  -.581715805184E-04  -.599710343899E-04  -.618260966250E-04  -.637384822053E-04  -.657099587833E-04
  -.677423482853E-04  -.698375285641E-04  -.719974350991E-04  -.742240627489E-04  -.765194675546E-04
  -.788857685980E-04  -.813251499143E-04  -.838398624616E-04  -.864322261493E-04  -.891046319258E-04
  -.918595439285E-04  -.946995016970E-04  -.976271224513E-04  -.100645103438E-03  -.103756224343E-03
  -.106963349778E-03  -.110269431839E-03  -.113677512736E-03  -.117190727505E-03  -.120812306794E-03
  -.124545579733E-03  -.128393976885E-03  -.132361033285E-03  -.136450391565E-03  -.140665805164E-03
  -.145011141642E-03  -.149490386076E-03  -.154107644561E-03  -.158867147809E-03  -.163773254845E-03
  -.168830456819E-03  -.174043380910E-03  -.179416794355E-03  -.184955608578E-03  -.190664883447E-03
  -.196549831633E-03  -.202615823108E-03  -.208868389754E-03  -.215313230103E-03  -.221956214206E-03
  -.228803388637E-03  -.235860981630E-03  -.243135408355E-03  -.250633276334E-03  -.258361391007E-03
  -.266326761441E-03  -.274536606189E-03  -.282998359305E-03  -.291719676517E-03  -.300708441557E-03
  -.309972772656E-03  -.319521029201E-03  -.329361818567E-03  -.339504003113E-03  -.349956707359E-03
  -.360729325339E-03  -.371831528128E-03  -.383273271562E-03  -.395064804132E-03  -.407216675073E-03
  -.419739742641E-03  -.432645182581E-03  -.445944496789E-03  -.459649522169E-03  -.473772439687E-03
  -.488325783630E-03  -.503322451051E-03  -.518775711430E-03  -.534699216525E-03  -.551107010426E-03
  -.568013539818E-03  -.585433664431E-03  -.603382667704E-03  -.621876267634E-03  -.640930627833E-03
  -.660562368767E-03  -.680788579195E-03  -.701626827793E-03  -.723095174954E-03  -.745212184772E-03
  -.767996937198E-03  -.791469040354E-03  -.815648643010E-03  -.840556447203E-03  -.866213721001E-03
  -.892642311389E-03  -.919864657269E-03  -.947903802565E-03  -.976783409411E-03  -.100652777141E-02
  -.103716182694E-02  -.106871117250E-02  -.110120207607E-02  -.113466149040E-02  -.116911706637E-02
  -.120459716617E-02  -.124113087644E-02  -.127874802127E-02  -.131747917501E-02  -.135735567488E-02
  -.139840963337E-02  -.144067395027E-02  -.148418232442E-02  -.152896926501E-02  -.157507010248E-02
  -.162252099886E-02  -.167135895753E-02  -.172162183238E-02  -.177334833617E-02  -.182657804812E-02
  -.188135142062E-02  -.193770978492E-02  -.199569535573E-02  -.205535123470E-02  -.211672141248E-02
  -.217985076946E-02  -.224478507488E-02  -.231157098432E-02  -.238025603528E-02  -.245088864086E-02
  -.252351808119E-02  -.259819449261E-02  -.267496885429E-02  -.275389297217E-02  -.283501945998E-02
  -.291840171708E-02  -.300409390297E-02  -.309215090817E-02  -.318262832124E-02  -.327558239157E-02
  -.337106998778E-02  -.346914855138E-02  -.356987604524E-02  -.367331089677E-02  -.377951193516E-02
  -.388853832260E-02  -.400044947881E-02  -.411530499863E-02  -.423316456214E-02  -.435408783697E-02
  -.447813437207E-02  -.460536348276E-02  -.473583412622E-02  -.486960476702E-02  -.500673323218E-02
  -.514727655491E-02  -.529129080665E-02  -.543883091657E-02  -.558995047800E-02  -.574470154092E-02
  -.590313438987E-02  -.606529730653E-02  -.623123631611E-02  -.640099491677E-02  -.657461379124E-02
  -.675213049979E-02  -.693357915358E-02  -.711899006763E-02  -.730838939228E-02  -.750179872245E-02
  -.769923468346E-02  -.790070849270E-02  -.810622549597E-02  -.831578467760E-02  -.852937814338E-02
  -.874699057524E-02  -.896859865676E-02  -.919417046853E-02  -.942366485247E-02  -.965703074412E-02
  -.989420647213E-02  -.101351190240E-01  -.103796832776E-01  -.106278011971E-01  -.108793609939E-01
  -.111342362507E-01  -.113922850092E-01  -.116533488208E-01  -.119172517605E-01  -.121837994037E-01
  -.124527777658E-01  -.127239522065E-01  -.129970662976E-01  -.132718406561E-01  -.135479717448E-01
  -.138251306395E-01  -.141029617675E-01  -.143810816174E-01  -.146590774244E-01  -.149365058337E-01
  -.152128915449E-01  -.154877259436E-01  -.157604657230E-01  -.160305315018E-01  -.162973064446E-01
  -.165601348920E-01  -.168183210067E-01  -.170711274464E-01  -.173177740706E-01  -.175574366933E-01
  -.177892458935E-01  -.180122858940E-01  -.182255935250E-01  -.184281572858E-01  -.186189165218E-01
  -.187967607349E-01  -.189605290465E-01  -.191090098337E-01  -.192409405620E-01  -.193550078400E-01
  -.194498477191E-01  -.195240462713E-01  -.195761404705E-01  -.196046194138E-01  -.196079259150E-01
  -.195844585071E-01  -.195325738956E-01  -.194505898999E-01  -.193367889311E-01  -.191894220497E-01
  -.190067136528E-01  -.187868668432E-01  -.185280695320E-01  -.182285013331E-01  -.178863413056E-01
  -.174997766060E-01  -.170670121108E-01  -.165862810746E-01  -.160558568871E-01  -.154740659960E-01
  -.148393020603E-01  -.141500414011E-01  -.134048598147E-01  -.126024508112E-01  -.117416453405E-01
  -.108214330651E-01  -.984098523443E-02  -.879967921215E-02  -.769712470357E-02  -.653319172454E-02
  -.530804034818E-02  -.402215226051E-02  -.267636415028E-02  -.127190295294E-02   .189577036845E-03
   .170595517641E-02   .327460360998E-02   .489234453840E-02   .655540565163E-02   .825937377700E-02
   .999914683509E-02   .117688842523E-01   .135619560639E-01   .153708910600E-01   .171873244954E-01
   .190019461006E-01   .208044494041E-01   .225834836440E-01   .243266097053E-01   .260202612761E-01
   .276497113365E-01   .291990416525E-01   .306511090152E-01   .319874976759E-01   .331884458190E-01
   .342327390239E-01   .350975771110E-01   .357584379706E-01   .361889726067E-01   .363609597453E-01
   .362443252137E-01   .358072040621E-01   .350160110352E-01   .338354941862E-01   .322287655203E-01
   .301573162355E-01   .275810273720E-01   .244581834381E-01   .207454919725E-01   .163981085274E-01
   .113696645545E-01   .561229480389E-02  -.923339411683E-03  -.828803470968E-02  -.165340414114E-01
  -.257150741010E-01  -.358863405838E-01  -.471045931267E-01  -.594282062717E-01  -.729172860652E-01
  -.876338162163E-01  -.103641847499E+00  -.121007737659E+00  -.139800450182E+00  -.160091921596E+00
  -.181957508501E+00  -.205476527333E+00  -.230732902009E+00  -.257815937118E+00  -.286821237265E+00
  -.317851796637E+00  -.351019286889E+00
 pseudo wavefunction
   .752962849494E-08   .800378380950E-08   .850779760403E-08   .904355012493E-08   .961304002135E-08
   .102183918013E-07   .108618637570E-07   .115458563900E-07   .122729213658E-07   .130457710335E-07
   .138672885438E-07   .147405386052E-07   .156687789167E-07   .166554723209E-07   .177042997225E-07
   .188191738197E-07   .200042537009E-07   .212639603606E-07   .226029931915E-07   .240263475165E-07
   .255393332233E-07   .271475945739E-07   .288571312602E-07   .306743207862E-07   .326059422599E-07
   .346592016826E-07   .368417588318E-07   .391617558355E-07   .416278475477E-07   .442492338350E-07
   .470356938975E-07   .499976227504E-07   .531460700032E-07   .564927810803E-07   .600502410384E-07
   .638317211424E-07   .678513283742E-07   .721240580595E-07   .766658498087E-07   .814936469801E-07
   .866254598878E-07   .920804329903E-07   .978789163093E-07   .104042541346E-06   .110594301781E-06
   .117558639247E-06   .124961534518E-06   .132830604423E-06   .141195204878E-06   .150086540398E-06
   .159537780503E-06   .169584183463E-06   .180263227829E-06   .191614752248E-06   .203681104080E-06
   .216507297382E-06   .230141180831E-06   .244633616223E-06   .260038668222E-06   .276413806045E-06
   .293820117852E-06   .312322538643E-06   .331990092494E-06   .352896150061E-06   .375118702284E-06
   .398740651339E-06   .423850119911E-06   .450540779929E-06   .478912202021E-06   .509070226962E-06
   .541127360516E-06   .575203193140E-06   .611424846125E-06   .649927445821E-06   .690854627730E-06
   .734359072343E-06   .780603074718E-06   .829759149925E-06   .882010676615E-06   .937552581122E-06
   .996592064635E-06   .105934937617E-05   .112605863420E-05   .119696870005E-05   .127234410628E-05
   .135246604351E-05   .143763340941E-05   .152816392374E-05   .162439531360E-05   .172668657333E-05
   .183541930371E-05   .195099913557E-05   .207385724293E-05   .220445195151E-05   .234327044852E-05
   .249083060010E-05   .264768288317E-05   .281441243900E-05   .299164125605E-05   .318003049024E-05
   .338028293142E-05   .359314562503E-05   .381941265892E-05   .405992812567E-05   .431558927138E-05
   .458734984277E-05   .487622364507E-05   .518328832389E-05   .550968938529E-05   .585664446892E-05
   .622544789026E-05   .661747546894E-05   .703418966094E-05   .747714501410E-05   .794799396706E-05
   .844849301337E-05   .898050925371E-05   .954602736069E-05   .101471569822E-04   .107861406109E-04
   .114653619492E-04   .121873548010E-04   .129548125231E-04   .137705980721E-04   .146377546832E-04
   .155595172221E-04   .165393242513E-04   .175808308560E-04   .186879222776E-04   .198647284056E-04
   .211156391818E-04   .224453209747E-04   .238587339841E-04   .253611507419E-04   .269581757775E-04
   .286557665213E-04   .304602555238E-04   .323783740737E-04   .344172773031E-04   .365845708721E-04
   .388883393339E-04   .413371762851E-04   .439402164139E-04   .467071695654E-04   .496483569506E-04
   .527747496351E-04   .560980094497E-04   .596305324753E-04   .633854952653E-04   .673769039757E-04
   .716196465876E-04   .761295484152E-04   .809234311067E-04   .860191753568E-04   .914357875658E-04
   .971934706909E-04   .103313699555E-03   .109819300894E-03   .116734538435E-03   .124085203330E-03
   .131898710274E-03   .140204199667E-03   .149032646202E-03   .158416974276E-03   .168392180663E-03
   .178995464887E-03   .190266367804E-03   .202246918876E-03   .214981792713E-03   .228518475445E-03
   .242907441539E-03   .258202341731E-03   .274460202753E-03   .291741639604E-03   .310111081142E-03
   .329637009839E-03   .350392216575E-03   .372454071420E-03   .395904811398E-03   .420831846295E-03
   .447328083635E-03   .475492274024E-03   .505429378130E-03   .537250956638E-03   .571075584631E-03
   .607029291898E-03   .645246030781E-03   .685868173292E-03   .729047039286E-03   .774943457647E-03
   .823728362502E-03   .875583426652E-03   .930701734520E-03   .989288497028E-03   .105156181103E-02
   .111775346601E-02   .118810980096E-02   .126289261453E-02   .134238013171E-02   .142686803046E-02
   .151667053205E-02   .161212155885E-02   .171357596382E-02   .182141083589E-02   .193602688603E-02
   .205784991863E-02   .218733239350E-02   .232495508390E-02   .247122883631E-02   .262669643795E-02
   .279193459857E-02   .296755605321E-02   .315421179296E-02   .335259343139E-02   .356343571443E-02
   .378751918209E-02   .402567299071E-02   .427877790498E-02   .454776946944E-02   .483364136951E-02
   .513744899269E-02   .546031320115E-02   .580342432722E-02   .616804640409E-02   .655552164419E-02
   .696727517872E-02   .740482007182E-02   .786976262382E-02   .836380797821E-02   .888876604762E-02
   .944655777455E-02   .100392217429E-01   .106689211572E-01   .113379512054E-01   .120487468240E-01
   .128038908815E-01   .136061227976E-01   .144583476164E-01   .153636455503E-01   .163252820110E-01
   .173467181450E-01   .184316218873E-01   .195838795501E-01   .208076079573E-01   .221071671380E-01
   .234871735866E-01   .249525140974E-01   .265083601762E-01   .281601830290E-01   .299137691223E-01
   .317752363052E-01   .337510504763E-01   .358480427721E-01   .380734272434E-01   .404348189791E-01
   .429402526213E-01   .455982012083E-01   .484175952612E-01   .514078420169E-01   .545788446896E-01
   .579410216205E-01   .615053251516E-01   .652832600301E-01   .692869011200E-01   .735289101605E-01
   .780225512728E-01   .827817048703E-01   .878208795808E-01   .931552217322E-01   .988005218952E-01
   .104773217906E+00   .111090393723E+00   .117769773392E+00   .124829709298E+00   .132289163800E+00
   .140167683236E+00   .148485363176E+00   .157262803684E+00   .166521053231E+00   .176281539773E+00
   .186565987354E+00   .197396316506E+00   .208794526515E+00   .220782557550E+00   .233382130485E+00
   .246614562130E+00   .260500553521E+00   .275059948784E+00   .290311462107E+00   .306272370309E+00
   .322958168582E+00   .340382187095E+00   .358555166379E+00   .377484789739E+00   .397175171407E+00
   .417626299759E+00   .438833435755E+00   .460786467780E+00   .483469225366E+00   .506858755849E+00
   .530924569958E+00   .555627864597E+00   .580920733798E+00   .606745381926E+00   .633033356825E+00
   .659704824618E+00   .686667912352E+00   .713818149588E+00   .741038045207E+00   .768196841104E+00
   .795150489813E+00   .821741908171E+00   .847801563580E+00   .873148452661E+00   .897591533610E+00
   .920931672497E+00   .942964159203E+00   .963481839520E+00   .982278894877E+00   .999155278756E+00
   .101392178757E+01   .102640570207E+01   .103645688164E+01   .104395412710E+01   .104881154724E+01
   .105098456981E+01   .105047513218E+01   .104733547152E+01   .104166981715E+01   .103363317636E+01
   .102342631295E+01   .101128596290E+01   .997469337037E+00   .982232053788E+00   .965798861574E+00
   .948326885166E+00   .929857739347E+00
 ae wavefunction
   .638386667376E-07   .677120719962E-07   .717878148162E-07   .760781692450E-07   .805960852755E-07
   .853552309281E-07   .903700368932E-07   .956557437996E-07   .101228452275E-06   .107105175975E-06
   .113303897768E-06   .119843629279E-06   .126744473999E-06   .134027694187E-06   .141715781809E-06
   .149832533758E-06   .158403131636E-06   .167454226371E-06   .177014027992E-06   .187112400866E-06
   .197780964760E-06   .209053202074E-06   .220964571654E-06   .233552629579E-06   .246857157378E-06
   .260920298125E-06   .275786700924E-06   .291503674301E-06   .308121349062E-06   .325692851214E-06
   .344274485579E-06   .363925930776E-06   .384710446267E-06   .406695092253E-06   .429950963189E-06
   .454553435806E-06   .480582432520E-06   .508122701213E-06   .537264112393E-06   .568101974841E-06
   .600737370883E-06   .635277512523E-06   .671836119748E-06   .710533822382E-06   .751498586969E-06
   .794866170246E-06   .840780600873E-06   .889394691184E-06   .940870580833E-06   .995380314344E-06
   .105310645465E-05   .111424273492E-05   .117899475101E-05   .124758069715E-05   .132023214744E-05
   .139719488621E-05   .147872979008E-05   .156511376512E-05   .165664074249E-05   .175362273610E-05
   .185639096640E-05   .196529705422E-05   .208071428910E-05   .220303897678E-05   .233269187073E-05
   .247011969307E-05   .261579675027E-05   .277022664977E-05   .293394412359E-05   .310751696575E-05
   .329154809048E-05   .348667771889E-05   .369358570193E-05   .391299398818E-05   .414566924562E-05
   .439242564673E-05   .465412782724E-05   .493169402933E-05   .522609944062E-05   .553837974126E-05
   .586963487198E-05   .622103303687E-05   .659381495531E-05   .698929837885E-05   .740888288904E-05
   .785405499401E-05   .832639354216E-05   .882757547256E-05   .935938192307E-05   .992370471820E-05
   .105225532603E-04   .111580618490E-04   .118324974554E-04   .125482679788E-04   .133079310169E-04
   .141142031792E-04   .149699699792E-04   .158782963398E-04   .168424377503E-04   .178658521140E-04
   .189522123315E-04   .201054196616E-04   .213296179102E-04   .226292084970E-04   .240088664536E-04
   .254735574115E-04   .270285556389E-04   .286794631912E-04   .304322302449E-04   .322931766840E-04
   .342690150189E-04   .363668747166E-04   .385943280294E-04   .409594174132E-04   .434706846320E-04
   .461372016512E-04   .489686034280E-04   .519751227146E-04   .551676269955E-04   .585576576880E-04
   .621574717438E-04   .659800857943E-04   .700393229956E-04   .743498627336E-04   .789272933620E-04
   .837881681551E-04   .889500646678E-04   .944316477064E-04   .100252736127E-03   .106434373689E-03
   .112998904200E-03   .119970051221E-03   .127373002584E-03   .135234500022E-03   .143582934202E-03
   .152448445488E-03   .161863030762E-03   .171860656675E-03   .182477379676E-03   .193751473245E-03
   .205723562729E-03   .218436768227E-03   .231936856004E-03   .246272398895E-03   .261494946258E-03
   .277659203982E-03   .294823225160E-03   .313048612011E-03   .332400729706E-03   .352948932759E-03
   .374766804705E-03   .397932411798E-03   .422528571522E-03   .448643136741E-03   .476369296349E-03
   .505805893338E-03   .537057761236E-03   .570236079922E-03   .605458751875E-03   .642850799952E-03
   .682544787871E-03   .724681264595E-03   .769409233900E-03   .816886650448E-03   .867280943766E-03
   .920769571575E-03   .977540603989E-03   .103779334017E-02   .110173895909E-02   .116960120612E-02
   .124161711723E-02   .131803778267E-02   .139912915210E-02   .148517288306E-02   .157646723507E-02
   .167332801131E-02   .177608955018E-02   .188510576920E-02   .200075126331E-02   .212342246037E-02
   .225353883612E-02   .239154419130E-02   .253790799365E-02   .269312678730E-02   .285772567255E-02
   .303225985866E-02   .321731629273E-02   .341351536733E-02   .362151270999E-02   .384200105741E-02
   .407571221735E-02   .432341912122E-02   .458593797008E-02   .486413047725E-02   .515890621002E-02
   .547122503343E-02   .580209965875E-02   .615259829894E-02   .652384743386E-02   .691703468697E-02
   .733341181578E-02   .777429781760E-02   .824108215208E-02   .873522808145E-02   .925827612928E-02
   .981184765789E-02   .103976485641E-01   .110174730928E-01   .116732077659E-01   .123668354262E-01
   .131004393914E-01   .138762077157E-01   .146964375537E-01   .155635396211E-01   .164800427450E-01
   .174485984965E-01   .184719858945E-01   .195531161717E-01   .206950375890E-01   .219009402849E-01
   .231741611430E-01   .245181886607E-01   .259366677978E-01   .274334047841E-01   .290123718602E-01
   .306777119238E-01   .324337430530E-01   .342849628725E-01   .362360527272E-01   .382918816234E-01
   .404575098967E-01   .427381925586E-01   .451393822735E-01   .476667319122E-01   .503260966243E-01
   .531235353679E-01   .560653118313E-01   .591578946758E-01   .624079570260E-01   .658223751276E-01
   .694082260906E-01   .731727846277E-01   .771235186983E-01   .812680839588E-01   .856143169185E-01
   .901702266971E-01   .949439852730E-01   .999439161104E-01   .105178481049E+00   .110656265340E+00
   .116385960702E+00   .122376346281E+00   .128636267393E+00   .135174611916E+00   .142000284232E+00
   .149122176577E+00   .156549137709E+00   .164289938775E+00   .172353236286E+00   .180747532104E+00
   .189481130385E+00   .198562091398E+00   .207998182192E+00   .217796824093E+00   .227965037026E+00
   .238509380698E+00   .249435892702E+00   .260750023621E+00   .272456569271E+00   .284559600216E+00
   .297062388746E+00   .309967333537E+00   .323275882213E+00   .336988452081E+00   .351104349291E+00
   .365621686691E+00   .380537300641E+00   .395846667028E+00   .411543816721E+00   .427621250673E+00
   .444069854932E+00   .460878815830E+00   .478035535801E+00   .495525550466E+00   .513332448110E+00
   .531437793276E+00   .549821057247E+00   .568459559656E+00   .587328427601E+00   .606400581552E+00
   .625646761242E+00   .645035609268E+00   .664533834316E+00   .684106476974E+00   .703717293083E+00
   .723329243608E+00   .742905026222E+00   .762407502025E+00   .781799786725E+00   .801044752505E+00
   .820103803160E+00   .838935065448E+00   .857491485850E+00   .875719528735E+00   .893559046860E+00
   .910944422795E+00   .927806518361E+00   .944074703498E+00   .959678416184E+00   .974548104615E+00
   .988615703182E+00   .100181487992E+01   .101408123971E+01   .102535257998E+01   .103556922786E+01
   .104467444950E+01   .105261490576E+01   .105934112503E+01   .106480796684E+01   .106897505609E+01
   .107180717351E+01   .107327459381E+01   .107335336666E+01   .107202553894E+01   .106927931812E+01
   .106510917804E+01   .105951590919E+01   .105250661580E+01   .104409466290E+01   .103429957658E+01
   .102314690122E+01   .101066801785E+01   .996899927778E+00   .981885006015E+00   .965670728910E+00
   .948309380191E+00   .929857739347E+00
 pseudo wavefunction
   .220510726003E-08   .234396714184E-08   .249157129973E-08   .264847037770E-08   .281524969489E-08
   .299253142912E-08   .318097693794E-08   .338128922588E-08   .359421556701E-08   .382055029271E-08
   .406113775494E-08   .431687547612E-08   .458871749742E-08   .487767793782E-08   .518483477731E-08
   .551133387839E-08   .585839326073E-08   .622730764505E-08   .661945328313E-08   .703629309200E-08
   .747938211139E-08   .795037330487E-08   .845102372634E-08   .898320107475E-08   .954889066168E-08
   .101502028176E-07   .107893807645E-07   .114688089845E-07   .121910221150E-07   .129587144045E-07
   .137747497635E-07   .146421724485E-07   .155642184184E-07   .165443274070E-07   .175861557546E-07
   .186935900482E-07   .198707616207E-07   .211220619629E-07   .224521591061E-07   .238660150366E-07
   .253689042064E-07   .269664332098E-07   .286645616989E-07   .304696246166E-07   .323883558291E-07
   .344279132469E-07   .365959055278E-07   .389004204610E-07   .413500551392E-07   .439539480303E-07
   .467218130685E-07   .496639758928E-07   .527914123670E-07   .561157895256E-07   .596495090982E-07
   .634057537739E-07   .673985363808E-07   .716427521603E-07   .761542343347E-07   .809498131736E-07
   .860473787793E-07   .914659478266E-07   .972257345048E-07   .103348225928E-06   .109856262290E-06
   .116774122077E-06   .124127612632E-06   .131944166431E-06   .140252943424E-06   .149084939813E-06
   .158473103685E-06   .168452457925E-06   .179060230869E-06   .190335995185E-06   .202321815498E-06
   .215062405314E-06   .228605293820E-06   .243001003196E-06   .258303237085E-06   .274569080933E-06
   .291859214946E-06   .310238140460E-06   .329774420555E-06   .350540935831E-06   .372615156290E-06
   .396079430329E-06   .421021291941E-06   .447533787255E-06   .475715821638E-06   .505672528661E-06
   .537515662286E-06   .571364013758E-06   .607343854751E-06   .645589408404E-06   .686243350034E-06
   .729457339371E-06   .775392586301E-06   .824220452246E-06   .876123089399E-06   .931294120217E-06
   .989939359700E-06   .105227758314E-05   .111854134224E-05   .118897783258E-05   .126384981572E-05
   .134343659941E-05   .142803507943E-05   .151796084710E-05   .161354936651E-05   .171515722584E-05
   .182316346750E-05   .193797100205E-05   .206000811101E-05   .218973004449E-05   .232762071924E-05
   .247419452368E-05   .262999823655E-05   .279561306643E-05   .297165681954E-05   .315878620412E-05
   .335769927981E-05   .356913806133E-05   .379389128594E-05   .403279735525E-05   .428674746213E-05
   .455668891448E-05   .484362866829E-05   .514863708299E-05   .547285191328E-05   .581748255219E-05
   .618381454116E-05   .657321436410E-05   .698713454305E-05   .742711905465E-05   .789480908748E-05
   .839194916163E-05   .892039363349E-05   .948211360980E-05   .100792042968E-04   .107138928117E-04
   .113885464859E-04   .121056816902E-04   .128679732154E-04   .136782642435E-04   .145395769448E-04
   .154551237435E-04   .164283192895E-04   .174627931856E-04   .185624035128E-04   .197312512075E-04
   .209736953421E-04   .222943693661E-04   .236981983688E-04   .251904174259E-04   .267765911001E-04
   .284626341667E-04   .302548336411E-04   .321598721905E-04   .341848530158E-04   .363373262963E-04
   .386253172944E-04   .410573562252E-04   .436425100008E-04   .463904159659E-04   .493113177508E-04
   .524161033729E-04   .557163457273E-04   .592243456159E-04   .629531774733E-04   .669167379579E-04
   .711297975857E-04   .756080555980E-04   .803681982623E-04   .854279608221E-04   .908061933196E-04
   .965229305343E-04   .102599466291E-03   .109058432410E-03   .115923882582E-03   .123221381479E-03
   .130978099420E-03   .139222912934E-03   .147986511589E-03   .157301511458E-03   .167202575652E-03
   .177726542333E-03   .188912560676E-03   .200802235257E-03   .213439779394E-03   .226872177969E-03
   .241149360323E-03   .256324383817E-03   .272453628720E-03   .289597005090E-03   .307818172383E-03
   .327184772542E-03   .347768677368E-03   .369646251032E-03   .392898628619E-03   .417612011640E-03
   .443877981522E-03   .471793832121E-03   .501462922350E-03   .532995050108E-03   .566506848703E-03
   .602122207080E-03   .639972715179E-03   .680198135845E-03   .722946904766E-03   .768376659988E-03
   .816654802617E-03   .867959090402E-03   .922478265944E-03   .980412721369E-03   .104197520135E-02
   .110739154646E-02   .117690147884E-02   .125075943232E-02   .132923542916E-02   .141261600551E-02
   .150120518793E-02   .159532552324E-02   .169531916395E-02   .180154901165E-02   .191439992059E-02
   .203427996383E-02   .216162176413E-02   .229688389172E-02   .244055233108E-02   .259314201851E-02
   .275519845236E-02   .292729937728E-02   .311005654364E-02   .330411754306E-02   .351016772027E-02
   .372893216124E-02   .396117775669E-02   .420771533949E-02   .446940189342E-02   .474714282991E-02
   .504189432797E-02   .535466573127E-02   .568652199462E-02   .603858617020E-02   .641204192184E-02
   .680813605302E-02   .722818103151E-02   .767355749028E-02   .814571668061E-02   .864618284913E-02
   .917655550567E-02   .973851154343E-02   .103338071668E-01   .109642795754E-01   .116318483444E-01
   .123385164336E-01   .130863707472E-01   .138775821536E-01   .147144048664E-01   .155991750686E-01
   .165343086507E-01   .175222979146E-01   .185657070761E-01   .196671663784E-01   .208293646057E-01
   .220550397596E-01   .233469676356E-01   .247079480019E-01   .261407880547E-01   .276482827843E-01
   .292331918489E-01   .308982125097E-01   .326459481392E-01   .344788717627E-01   .363992840476E-01
   .384092650983E-01   .405106193650E-01   .427048129169E-01   .449929022760E-01   .473754539542E-01
   .498524537863E-01   .524232051000E-01   .550862147310E-01   .578390658537E-01   .606782765856E-01
   .635991433185E-01   .665955677558E-01   .696598666785E-01   .727825635484E-01   .759521611798E-01
   .791548948835E-01   .823744657204E-01   .855917538030E-01   .887845119637E-01   .919270405844E-01
   .949898449578E-01   .979392772425E-01   .100737165893E+00   .103340436400E+00   .105700728264E+00
   .107764014369E+00   .109470230293E+00   .110752922566E+00   .111538926523E+00   .111748085992E+00
   .111293028748E+00   .110079013189E+00   .108003863095E+00   .104958008324E+00   .100824649867E+00
   .954800674807E-01   .887940869666E-01   .806307217945E-01   .708489998265E-01   .593039801334E-01
   .458479569870E-01   .303318378497E-01   .126066694681E-01  -.747472889487E-02  -.300560830704E-01
  -.552760085309E-01  -.832664757191E-01  -.114151505139E+00  -.148046210450E+00  -.185056306696E+00
  -.225278183433E+00  -.268799601434E+00  -.315700997901E+00  -.366057268444E+00  -.419939723556E+00
  -.477417682425E+00  -.538558859393E+00  -.603427314804E+00  -.672077287878E+00  -.744540723763E+00
  -.820805789414E+00  -.900776501472E+00
 ae wavefunction
   .214439324468E-07   .227450538540E-07   .241141425464E-07   .255553215359E-07   .270729408934E-07
   .286715918845E-07   .303561219660E-07   .321316506638E-07   .340035863888E-07   .359776442506E-07
   .380598649309E-07   .402566346844E-07   .425747065390E-07   .450212227694E-07   .476037387257E-07
   .503302481017E-07   .532092097343E-07   .562495760287E-07   .594608231140E-07   .628529828359E-07
   .664366767039E-07   .702231519137E-07   .742243195777E-07   .784527953005E-07   .829219422474E-07
   .876459168625E-07   .926397174026E-07   .979192354641E-07   .103501310689E-06   .109403788854E-06
   .115645583547E-06   .122246741665E-06   .129228512966E-06   .136613423932E-06   .144425356216E-06
   .152689629950E-06   .161433092233E-06   .170684211113E-06   .180473175406E-06   .190832000729E-06
   .201794642122E-06   .213397113679E-06   .225677615626E-06   .238676669314E-06   .252437260609E-06
   .267004992228E-06   .282428245553E-06   .298758352543E-06   .316049778347E-06   .334360315319E-06
   .353751289108E-06   .374287777622E-06   .396038843636E-06   .419077781907E-06   .443482381714E-06
   .469335205763E-06   .496723886508E-06   .525741440943E-06   .556486605049E-06   .589064189100E-06
   .623585455143E-06   .660168518030E-06   .698938771473E-06   .740029340684E-06   .783581563255E-06
   .829745500044E-06   .878680477931E-06   .930555666438E-06   .985550690318E-06   .104385628036E-05
   .110567496478E-05   .117122180374E-05   .124072516967E-05   .131442757625E-05   .139258655907E-05
   .147547561121E-05   .156338517713E-05   .165662370847E-05   .175551878572E-05   .186041830969E-05
   .197169176730E-05   .208973157610E-05   .221495451260E-05   .234780322953E-05   .248874786749E-05
   .263828776697E-05   .279695328683E-05   .296530773601E-05   .314394942522E-05   .333351384636E-05
   .353467598730E-05   .374815279061E-05   .397470576490E-05   .421514375848E-05   .447032590518E-05
   .474116475297E-05   .502862958673E-05   .533374995717E-05   .565761942839E-05   .600139955791E-05
   .636632412310E-05   .675370360942E-05   .716492997652E-05   .760148171913E-05   .806492924106E-05
   .855694056130E-05   .907928737274E-05   .963385147499E-05   .102226316042E-04   .108477506844E-04
   .115114635256E-04   .122161649961E-04   .129643986989E-04   .137588661807E-04   .146024367084E-04
   .154981576454E-04   .164492654665E-04   .174591974469E-04   .185316040699E-04   .196703621932E-04
   .208795890225E-04   .221636569392E-04   .235272092347E-04   .249751768050E-04   .265127958644E-04
   .281456267386E-04   .298795738018E-04   .317209066269E-04   .336762824202E-04   .357527698187E-04
   .379578741288E-04   .402995640943E-04   .427863002831E-04   .454270651878E-04   .482313951430E-04
   .512094141643E-04   .543718698245E-04   .577301712826E-04   .612964295958E-04   .650835004444E-04
   .691050294115E-04   .733754999652E-04   .779102843005E-04   .827256972036E-04   .878390531163E-04
   .932687265796E-04   .990342162528E-04   .105156212710E-03   .111656670231E-03   .118558882805E-03
   .125887564598E-03   .133668935117E-03   .141930809350E-03   .150702693148E-03   .160015884140E-03
   .169903578489E-03   .180400983817E-03   .191545438610E-03   .203376538487E-03   .215936269682E-03
   .229269150132E-03   .243422378573E-03   .258445992080E-03   .274393032481E-03   .291319722113E-03
   .309285649411E-03   .328353964828E-03   .348591587618E-03   .370069424026E-03   .392862597465E-03
   .417050691270E-03   .442718004648E-03   .469953822468E-03   .498852699551E-03   .529514760160E-03
   .562046013391E-03   .596558685214E-03   .633171567909E-03   .672010387694E-03   .713208191344E-03
   .756905752623E-03   .803251999378E-03   .852404462168E-03   .904529745287E-03   .959804021106E-03
   .101841354862E-02   .108055521714E-02   .114643711603E-02   .121627913145E-02   .129031357097E-02
   .136878581715E-02   .145195501068E-02   .154009476437E-02   .163349390850E-02   .173245726865E-02
   .183730647660E-02   .194838081521E-02   .206603809788E-02   .219065558326E-02   .232263092570E-02
   .246238316195E-02   .261035373437E-02   .276700755094E-02   .293283408200E-02   .310834849374E-02
   .329409281805E-02   .349063715825E-02   .369858092996E-02   .391855413602E-02   .415121867429E-02
   .439726967653E-02   .465743687645E-02   .493248600457E-02   .522322020686E-02   .553048148404E-02
   .585515214761E-02   .619815628810E-02   .656046125054E-02   .694307911142E-02   .734706815053E-02
   .777353431052E-02   .822363263580E-02   .869856868174E-02   .919959988409E-02   .972803687712E-02
   .102852447482E-01   .108726442153E-01   .114917127113E-01   .121439853606E-01   .128310558276E-01
   .135545770185E-01   .143162616155E-01   .151178824187E-01   .159612724706E-01   .168483249369E-01
   .177809927124E-01   .187612877206E-01   .197912798728E-01   .208730956493E-01   .220089162627E-01
   .232009753609E-01   .244515562249E-01   .257629884113E-01   .271376437897E-01   .285779319179E-01
   .300862946983E-01   .316652002526E-01   .333171359502E-01   .350446005212E-01   .368500951812E-01
   .387361136932E-01   .407051312866E-01   .427595923495E-01   .449018968114E-01   .471343851229E-01
   .494593217451E-01   .518788770501E-01   .543951075386E-01   .570099342762E-01   .597251194464E-01
   .625422409228E-01   .654626647589E-01   .684875154961E-01   .716176441914E-01   .748535940699E-01
   .781955637092E-01   .816433676648E-01   .851963944552E-01   .888535618226E-01   .926132691984E-01
   .964733472999E-01   .100431004795E+00   .104482771969E+00   .108624441341E+00   .112851005159E+00
   .117156589719E+00   .121534386451E+00   .125976579684E+00   .130474271047E+00   .135017400422E+00
   .139594663400E+00   .144193425222E+00   .148799631235E+00   .153397713984E+00   .157970497238E+00
   .162499097421E+00   .166962823315E+00   .171339075291E+00   .175603245994E+00   .179728625222E+00
   .183686312757E+00   .187445144036E+00   .190971634403E+00   .194229947418E+00   .197181889733E+00
   .199786927052E+00   .202002200592E+00   .203782502383E+00   .205080149019E+00   .205844694814E+00
   .206022465227E+00   .205555970546E+00   .204383344904E+00   .202437991072E+00   .199648555399E+00
   .195939222511E+00   .191230184790E+00   .185438099866E+00   .178476417697E+00   .170255565060E+00
   .160683042132E+00   .149663496034E+00   .137098815911E+00   .122888270227E+00   .106928691054E+00
   .891147026474E-01   .693389897809E-01   .474926025024E-01   .234652964071E-01  -.285408970561E-02
  -.315772144015E-01  -.628157659007E-01  -.966809378721E-01  -.133282839129E+00  -.172729826433E+00
  -.215127748539E+00  -.260579088603E+00  -.309181991105E+00  -.361029158548E+00  -.416206602397E+00
  -.474792232115E+00  -.536854265697E+00  -.602449445015E+00  -.671621039432E+00  -.744396621747E+00
  -.820785601421E+00  -.900776501472E+00
 End of Dataset
