 PAW_PBE Ca 06Sep2000
 2.00000000000000000
 parameters from PSCTR are:
   VRHFIN =Ca: s2d0.01
   LEXCH  = PE
   EATOM  =    18.2003 eV,    1.3377 Ry

   TITEL  = PAW_PBE Ca 06Sep2000
   LULTRA =        F    use ultrasoft PP ?
   IUNSCR =        1    unscreen: 0-lin 1-nonlin 2-no
   RPACOR =    3.080    partial core radius
   POMASS =   40.078; ZVAL   =    2.000    mass and valenz
   RCORE  =    3.700    outmost cutoff radius
   RWIGS  =    3.680; RWIGS  =    1.947    wigner-seitz radius (au A)
   ENMAX  =  102.755; ENMIN  =   77.067 eV
   RCLOC  =    1.696    cutoff for local pot
   LCOR   =        T    correct aug charges
   LPAW   =        T    paw PP
   EAUG   =  171.791
   DEXC   =    -.008
   RMAX   =    4.549    core radius for proj-oper
   RAUG   =    1.300    factor for augmentation sphere
   RDEP   =    3.744    radius for radial grids
   QCUT   =   -2.748; QGAM   =    5.496    optimization parameters
 
   Description
     l     E      TYP  RCUT    TYP  RCUT
     0   .000     23  3.300
     0  1.000     23  3.300
     1  -.100     23  3.700
     1  2.000     23  3.700
     2   .000     23  3.700
     2   .000     23  3.700
   Error from kinetic energy argument (eV)
   NDATA  =      100
   STEP   =   20.000   1.050
  .202      .179      .167      .144      .133      .111      .909E-01  .817E-01
  .651E-01  .508E-01  .445E-01  .337E-01  .251E-01  .183E-01  .131E-01  .925E-02
  .651E-02  .463E-02  .339E-02  .236E-02  .203E-02  .186E-02  .174E-02  .170E-02
  .165E-02  .155E-02  .139E-02  .126E-02  .105E-02  .844E-03  .655E-03  .499E-03
  .382E-03  .301E-03  .253E-03  .228E-03  .218E-03  .218E-03  .215E-03  .208E-03
  .189E-03  .163E-03  .133E-03  .104E-03  .818E-04  .667E-04  .587E-04  .556E-04
  .555E-04  .545E-04  .504E-04  .450E-04  .367E-04  .288E-04  .222E-04  .195E-04
  .187E-04  .187E-04  .178E-04  .157E-04  .127E-04  .100E-04  .828E-05  .760E-05
  .756E-05  .730E-05  .640E-05  .515E-05  .400E-05  .356E-05  .350E-05  .338E-05
  .294E-05  .234E-05  .190E-05  .180E-05  .178E-05  .159E-05  .125E-05  .104E-05
  .996E-06  .966E-06  .825E-06  .648E-06  .588E-06  .579E-06  .505E-06  .398E-06
  .364E-06  .355E-06  .294E-06  .243E-06  .235E-06  .214E-06  .170E-06  .157E-06
  .148E-06  .120E-06  .108E-06  .102E-06
END of PSCTR-controll parameters
 local part
 51.0226016916309320
  -.31733035E+02  -.31723111E+02  -.31693367E+02  -.31643828E+02  -.31574544E+02
  -.31485586E+02  -.31377046E+02  -.31249033E+02  -.31101678E+02  -.30935133E+02
  -.30749567E+02  -.30545169E+02  -.30322148E+02  -.30080732E+02  -.29821166E+02
  -.29543715E+02  -.29248661E+02  -.28936303E+02  -.28606958E+02  -.28260960E+02
  -.27898660E+02  -.27520421E+02  -.27126626E+02  -.26717669E+02  -.26293961E+02
  -.25855924E+02  -.25403996E+02  -.24938625E+02  -.24460272E+02  -.23969409E+02
  -.23466518E+02  -.22952091E+02  -.22426632E+02  -.21890651E+02  -.21344666E+02
  -.20789206E+02  -.20224803E+02  -.19651998E+02  -.19071337E+02  -.18483372E+02
  -.17888658E+02  -.17287758E+02  -.16681234E+02  -.16069654E+02  -.15453588E+02
  -.14833609E+02  -.14210289E+02  -.13584202E+02  -.12955925E+02  -.12326030E+02
  -.11695091E+02  -.11063682E+02  -.10432371E+02  -.98017277E+01  -.91723152E+01
  -.85446945E+01  -.79194219E+01  -.72970484E+01  -.66781195E+01  -.60631742E+01
  -.54527444E+01  -.48473545E+01  -.42475204E+01  -.36537492E+01  -.30665382E+01
  -.24863744E+01  -.19137341E+01  -.13490817E+01  -.79286974E+00  -.24553762E+00
   .29248848E+00   .82079647E+00   .13389889E+01   .18466833E+01   .23435133E+01
   .28291284E+01   .33031952E+01   .37653973E+01   .42154361E+01   .46530314E+01
   .50779212E+01   .54898629E+01   .58886329E+01   .62740276E+01   .66458631E+01
   .70039760E+01   .73482230E+01   .76784818E+01   .79946507E+01   .82966490E+01
   .85844169E+01   .88579157E+01   .91171274E+01   .93620551E+01   .95927226E+01
   .98091742E+01   .10011475E+02   .10199709E+02   .10373982E+02   .10534418E+02
   .10681159E+02   .10814368E+02   .10934225E+02   .11040927E+02   .11134689E+02
   .11215743E+02   .11284334E+02   .11340725E+02   .11385193E+02   .11418027E+02
   .11439531E+02   .11450021E+02   .11449821E+02   .11439270E+02   .11418714E+02
   .11388509E+02   .11349017E+02   .11300610E+02   .11243662E+02   .11178556E+02
   .11105678E+02   .11025416E+02   .10938161E+02   .10844308E+02   .10744248E+02
   .10638375E+02   .10527082E+02   .10410758E+02   .10289790E+02   .10164561E+02
   .10035451E+02   .99028318E+01   .97670721E+01   .96285321E+01   .94875650E+01
   .93445158E+01   .91997211E+01   .90535077E+01   .89061930E+01   .87580838E+01
   .86094762E+01   .84606552E+01   .83118940E+01   .81634541E+01   .80155848E+01
   .78685227E+01   .77224922E+01   .75777047E+01   .74343585E+01   .72926394E+01
   .71527199E+01   .70147596E+01   .68789052E+01   .67452906E+01   .66140370E+01
   .64852530E+01   .63590350E+01   .62354673E+01   .61146223E+01   .59965610E+01
   .58813331E+01   .57689776E+01   .56595228E+01   .55529873E+01   .54493799E+01
   .53487002E+01   .52509390E+01   .51560792E+01   .50640955E+01   .49749558E+01
   .48886207E+01   .48050452E+01   .47241780E+01   .46459630E+01   .45703391E+01
   .44972412E+01   .44266005E+01   .43583449E+01   .42923997E+01   .42286880E+01
   .41671310E+01   .41076489E+01   .40501607E+01   .39945850E+01   .39408406E+01
   .38888464E+01   .38385219E+01   .37897880E+01   .37425666E+01   .36967813E+01
   .36523577E+01   .36092236E+01   .35673090E+01   .35265467E+01   .34868720E+01
   .34482234E+01   .34105422E+01   .33737731E+01   .33378637E+01   .33027653E+01
   .32684321E+01   .32348221E+01   .32018963E+01   .31696191E+01   .31379584E+01
   .31068849E+01   .30763728E+01   .30463992E+01   .30169442E+01   .29879907E+01
   .29595240E+01   .29315324E+01   .29040062E+01   .28769380E+01   .28503225E+01
   .28241562E+01   .27984371E+01   .27731650E+01   .27483407E+01   .27239663E+01
   .27000445E+01   .26765791E+01   .26535741E+01   .26310341E+01   .26089637E+01
   .25873675E+01   .25662502E+01   .25456158E+01   .25254682E+01   .25058103E+01
   .24866448E+01   .24679730E+01   .24497956E+01   .24321121E+01   .24149210E+01
   .23982195E+01   .23820035E+01   .23662675E+01   .23510049E+01   .23362075E+01
   .23218657E+01   .23079686E+01   .22945040E+01   .22814579E+01   .22688155E+01
   .22565604E+01   .22446749E+01   .22331402E+01   .22219365E+01   .22110428E+01
   .22004372E+01   .21900970E+01   .21799987E+01   .21701180E+01   .21604305E+01
   .21509109E+01   .21415338E+01   .21322737E+01   .21231048E+01   .21140017E+01
   .21049390E+01   .20958914E+01   .20868344E+01   .20777439E+01   .20685963E+01
   .20593690E+01   .20500402E+01   .20405891E+01   .20309958E+01   .20212418E+01
   .20113098E+01   .20011837E+01   .19908489E+01   .19802922E+01   .19695019E+01
   .19584681E+01   .19471821E+01   .19356370E+01   .19238277E+01   .19117506E+01
   .18994037E+01   .18867868E+01   .18739014E+01   .18607504E+01   .18473385E+01
   .18336718E+01   .18197581E+01   .18056065E+01   .17912277E+01   .17766335E+01
   .17618371E+01   .17468530E+01   .17316966E+01   .17163845E+01   .17009341E+01
   .16853636E+01   .16696922E+01   .16539394E+01   .16381256E+01   .16222712E+01
   .16063973E+01   .15905250E+01   .15746757E+01   .15588705E+01   .15431308E+01
   .15274775E+01   .15119313E+01   .14965127E+01   .14812413E+01   .14661367E+01
   .14512173E+01   .14365012E+01   .14220055E+01   .14077463E+01   .13937391E+01
   .13799982E+01   .13665368E+01   .13533672E+01   .13405005E+01   .13279464E+01
   .13157138E+01   .13038102E+01   .12922418E+01   .12810136E+01   .12701295E+01
   .12595920E+01   .12494025E+01   .12395609E+01   .12300664E+01   .12209167E+01
   .12121083E+01   .12036369E+01   .11954969E+01   .11876819E+01   .11801843E+01
   .11729959E+01   .11661074E+01   .11595088E+01   .11531895E+01   .11471381E+01
   .11413427E+01   .11357909E+01   .11304697E+01   .11253660E+01   .11204661E+01
   .11157564E+01   .11112227E+01   .11068512E+01   .11026276E+01   .10985381E+01
   .10945686E+01   .10907055E+01   .10869350E+01   .10832441E+01   .10796198E+01
   .10760496E+01   .10725213E+01   .10690233E+01   .10655445E+01   .10620744E+01
   .10586029E+01   .10551208E+01   .10516193E+01   .10480904E+01   .10445267E+01
   .10409214E+01   .10372687E+01   .10335633E+01   .10298005E+01   .10259764E+01
   .10220880E+01   .10181327E+01   .10141087E+01   .10100147E+01   .10058504E+01
   .10016156E+01   .99731117E+00   .99293822E+00   .98849848E+00   .98399418E+00
   .97942801E+00   .97480305E+00   .97012280E+00   .96539107E+00   .96061202E+00
   .95579003E+00   .95092975E+00   .94603600E+00   .94111375E+00   .93616808E+00
   .93120415E+00   .92622717E+00   .92124233E+00   .91625479E+00   .91126966E+00
   .90629193E+00   .90132649E+00   .89637806E+00   .89145116E+00   .88655013E+00
   .88167907E+00   .87684185E+00   .87204203E+00   .86728294E+00   .86256758E+00
   .85789867E+00   .85327858E+00   .84870939E+00   .84419285E+00   .83973037E+00
   .83532305E+00   .83097167E+00   .82667667E+00   .82243821E+00   .81825612E+00
   .81412995E+00   .81005899E+00   .80604224E+00   .80207847E+00   .79816620E+00
   .79430377E+00   .79048928E+00   .78672070E+00   .78299583E+00   .77931232E+00
   .77566773E+00   .77205954E+00   .76848513E+00   .76494185E+00   .76142703E+00
   .75793800E+00   .75447209E+00   .75102666E+00   .74759915E+00   .74418706E+00
   .74078796E+00   .73739957E+00   .73401968E+00   .73064626E+00   .72727739E+00
   .72391134E+00   .72054654E+00   .71718158E+00   .71381528E+00   .71044660E+00
   .70707474E+00   .70369908E+00   .70031921E+00   .69693493E+00   .69354622E+00
   .69015330E+00   .68675655E+00   .68335657E+00   .67995413E+00   .67655019E+00
   .67314587E+00   .66974247E+00   .66634143E+00   .66294432E+00   .65955286E+00
   .65616888E+00   .65279430E+00   .64943113E+00   .64608147E+00   .64274745E+00
   .63943128E+00   .63613518E+00   .63286138E+00   .62961211E+00   .62638960E+00
   .62319604E+00   .62003358E+00   .61690433E+00   .61381029E+00   .61075343E+00
   .60773559E+00   .60475854E+00   .60182390E+00   .59893320E+00   .59608782E+00
   .59328902E+00   .59053789E+00   .58783539E+00   .58518232E+00   .58257931E+00
   .58002685E+00   .57752523E+00   .57507461E+00   .57267495E+00   .57032608E+00
   .56802763E+00   .56577909E+00   .56357980E+00   .56142891E+00   .55932546E+00
   .55726833E+00   .55525625E+00   .55328785E+00   .55136162E+00   .54947595E+00
   .54762911E+00   .54581928E+00   .54404458E+00   .54230303E+00   .54059259E+00
   .53891119E+00   .53725669E+00   .53562694E+00   .53401976E+00   .53243297E+00
   .53086437E+00   .52931179E+00   .52777308E+00   .52624612E+00   .52472882E+00
   .52321914E+00   .52171511E+00   .52021481E+00   .51871641E+00   .51721812E+00
   .51571828E+00   .51421530E+00   .51270768E+00   .51119403E+00   .50967305E+00
   .50814357E+00   .50660451E+00   .50505491E+00   .50349393E+00   .50192082E+00
   .50033498E+00   .49873590E+00   .49712319E+00   .49549657E+00   .49385588E+00
   .49220104E+00   .49053210E+00   .48884921E+00   .48715260E+00   .48544260E+00
   .48371963E+00   .48198418E+00   .48023684E+00   .47847822E+00   .47670906E+00
   .47493009E+00   .47314215E+00   .47134609E+00   .46954279E+00   .46773319E+00
   .46591825E+00   .46409893E+00   .46227622E+00   .46045110E+00   .45862458E+00
   .45679765E+00   .45497127E+00   .45314643E+00   .45132406E+00   .44950510E+00
   .44769044E+00   .44588095E+00   .44407746E+00   .44228077E+00   .44049164E+00
   .43871078E+00   .43693886E+00   .43517651E+00   .43342431E+00   .43168277E+00
   .42995239E+00   .42823359E+00   .42652675E+00   .42483220E+00   .42315023E+00
   .42148106E+00   .41982490E+00   .41818188E+00   .41655210E+00   .41493563E+00
   .41333248E+00   .41174264E+00   .41016607E+00   .40860267E+00   .40705236E+00
   .40551500E+00   .40399043E+00   .40247849E+00   .40097900E+00   .39949175E+00
   .39801654E+00   .39655316E+00   .39510140E+00   .39366104E+00   .39223186E+00
   .39081366E+00   .38940624E+00   .38800939E+00   .38662295E+00   .38524672E+00
   .38388056E+00   .38252433E+00   .38117788E+00   .37984111E+00   .37851393E+00
   .37719624E+00   .37588800E+00   .37458916E+00   .37329970E+00   .37201959E+00
   .37074887E+00   .36948754E+00   .36823565E+00   .36699325E+00   .36576041E+00
   .36453722E+00   .36332375E+00   .36212012E+00   .36092644E+00   .35974280E+00
   .35856934E+00   .35740616E+00   .35625339E+00   .35511115E+00   .35397954E+00
   .35285867E+00   .35174863E+00   .35064951E+00   .34956139E+00   .34848431E+00
   .34741833E+00   .34636345E+00   .34531970E+00   .34428704E+00   .34326544E+00
   .34225483E+00   .34125513E+00   .34026623E+00   .33928798E+00   .33832023E+00
   .33736278E+00   .33641543E+00   .33547793E+00   .33455003E+00   .33363142E+00
   .33272181E+00   .33182086E+00   .33092822E+00   .33004350E+00   .32916632E+00
   .32829627E+00   .32743291E+00   .32657581E+00   .32572451E+00   .32487854E+00
   .32403743E+00   .32320069E+00   .32236785E+00   .32153841E+00   .32071187E+00
   .31988775E+00   .31906557E+00   .31824484E+00   .31742509E+00   .31660587E+00
   .31578672E+00   .31496721E+00   .31414692E+00   .31332546E+00   .31250246E+00
   .31167755E+00   .31085042E+00   .31002075E+00   .30918828E+00   .30835275E+00
   .30751395E+00   .30667169E+00   .30582581E+00   .30497620E+00   .30412274E+00
   .30326540E+00   .30240412E+00   .30153891E+00   .30066981E+00   .29979687E+00
   .29892019E+00   .29803987E+00   .29715608E+00   .29626897E+00   .29537875E+00
   .29448564E+00   .29358988E+00   .29269173E+00   .29179148E+00   .29088943E+00
   .28998590E+00   .28908121E+00   .28817571E+00   .28726974E+00   .28636368E+00
   .28545789E+00   .28455274E+00   .28364860E+00   .28274585E+00   .28184486E+00
   .28094600E+00   .28004964E+00   .27915613E+00   .27826582E+00   .27737904E+00
   .27649612E+00   .27561737E+00   .27474309E+00   .27387354E+00   .27300900E+00
   .27214970E+00   .27129587E+00   .27044771E+00   .26960540E+00   .26876910E+00
   .26793896E+00   .26711509E+00   .26629760E+00   .26548656E+00   .26468204E+00
   .26388407E+00   .26309267E+00   .26230784E+00   .26152958E+00   .26075784E+00
   .25999259E+00   .25923376E+00   .25848128E+00   .25773505E+00   .25699498E+00
   .25626096E+00   .25553287E+00   .25481059E+00   .25409398E+00   .25338291E+00
   .25267723E+00   .25197680E+00   .25128147E+00   .25059110E+00   .24990554E+00
   .24922464E+00   .24854827E+00   .24787630E+00   .24720858E+00   .24654500E+00
   .24588544E+00   .24522979E+00   .24457795E+00   .24392983E+00   .24328535E+00
   .24264444E+00   .24200703E+00   .24137309E+00   .24074255E+00   .24011541E+00
   .23949164E+00   .23887122E+00   .23825416E+00   .23764047E+00   .23703015E+00
   .23642324E+00   .23581977E+00   .23521976E+00   .23462326E+00   .23403030E+00
   .23344094E+00   .23285523E+00   .23227320E+00   .23169492E+00   .23112041E+00
   .23054974E+00   .22998294E+00   .22942005E+00   .22886111E+00   .22830613E+00
   .22775514E+00   .22720816E+00   .22666519E+00   .22612622E+00   .22559124E+00
   .22506024E+00   .22453317E+00   .22400999E+00   .22349066E+00   .22297509E+00
   .22246320E+00   .22195492E+00   .22145013E+00   .22094871E+00   .22045055E+00
   .21995549E+00   .21946339E+00   .21897408E+00   .21848739E+00   .21800314E+00
   .21752114E+00   .21704118E+00   .21656307E+00   .21608659E+00   .21561151E+00
   .21513764E+00   .21466473E+00   .21419256E+00   .21372092E+00   .21324957E+00
   .21277830E+00   .21230689E+00   .21183512E+00   .21136281E+00   .21088974E+00
   .21041572E+00   .20994058E+00   .20946415E+00   .20898626E+00   .20850678E+00
   .20802557E+00   .20754252E+00   .20705751E+00   .20657045E+00   .20608129E+00
   .20558995E+00   .20509641E+00   .20460063E+00   .20410260E+00   .20360235E+00
   .20309990E+00   .20259528E+00   .20208858E+00   .20157986E+00   .20106922E+00
   .20055677E+00   .20004264E+00   .19952698E+00   .19900993E+00   .19849168E+00
   .19797239E+00   .19745226E+00   .19693151E+00   .19641033E+00   .19588894E+00
   .19536758E+00   .19484648E+00   .19432587E+00   .19380599E+00   .19328707E+00
   .19276936E+00   .19225310E+00   .19173851E+00   .19122583E+00   .19071528E+00
   .19020709E+00   .18970146E+00   .18919859E+00   .18869869E+00   .18820193E+00
   .18770848E+00   .18721852E+00   .18673218E+00   .18624960E+00   .18577091E+00
   .18529621E+00   .18482561E+00   .18435917E+00   .18389696E+00   .18343904E+00
   .18298545E+00   .18253620E+00   .18209130E+00   .18165075E+00   .18121452E+00
   .18078258E+00   .18035489E+00   .17993138E+00   .17951198E+00   .17909660E+00
   .17868516E+00   .17827756E+00   .17787367E+00   .17747338E+00   .17707657E+00
   .17668309E+00   .17629282E+00   .17590562E+00   .17552134E+00   .17513983E+00
   .17476096E+00   .17438457E+00   .17401053E+00   .17363870E+00   .17326894E+00
   .17290111E+00   .17253508E+00   .17217075E+00   .17180798E+00   .17144667E+00
   .17108673E+00   .17072804E+00   .17037053E+00   .17001412E+00   .16965873E+00
   .16930431E+00   .16895080E+00   .16859815E+00   .16824634E+00   .16789533E+00
   .16754510E+00   .16719564E+00   .16684694E+00   .16649902E+00   .16615187E+00
   .16580552E+00   .16545999E+00   .16511530E+00   .16477150E+00   .16442861E+00
   .16408668E+00   .16374576E+00   .16340588E+00   .16306710E+00   .16272947E+00
   .16239303E+00   .16205784E+00   .16172393E+00   .16139136E+00   .16106016E+00
   .16073037E+00   .16040203E+00   .16007516E+00   .15974979E+00   .15942592E+00
   .15910358E+00   .15878276E+00   .15846346E+00   .15814567E+00   .15782937E+00
   .15751453E+00   .15720113E+00   .15688911E+00   .15657844E+00   .15626905E+00
   .15596090E+00   .15565390E+00   .15534798E+00   .15504307E+00   .15473909E+00
   .15443593E+00   .15413352E+00   .15383175E+00   .15353053E+00   .15322975E+00
   .15292930E+00   .15262910E+00   .15232902E+00   .15202896E+00   .15172883E+00
   .15142852E+00   .15112793E+00   .15082696E+00   .15052552E+00   .15022353E+00
   .14992089E+00   .14961754E+00   .14931339E+00   .14900840E+00   .14870250E+00
   .14839565E+00   .14808780E+00   .14777893E+00   .14746902E+00   .14715805E+00
   .14684604E+00   .14653297E+00   .14621889E+00   .14590381E+00   .14558778E+00
   .14527084E+00   .14495306E+00   .14463450E+00   .14431524E+00   .14399537E+00
   .14367498E+00   .14335416E+00   .14303304E+00   .14271172E+00   .14239032E+00
   .14206897E+00   .14174779E+00   .14142692E+00   .14110648E+00   .14078663E+00
   .14046748E+00   .14014919E+00   .13983189E+00   .13951572E+00   .13920081E+00
 gradient corrections used for XC
 5
 core charge-density (partial)
   .15135999E+01   .15129987E+01   .15111965E+01   .15081974E+01   .15040083E+01
   .14986387E+01   .14921009E+01   .14844095E+01   .14755821E+01   .14656385E+01
   .14546010E+01   .14424943E+01   .14293452E+01   .14151828E+01   .14000381E+01
   .13839442E+01   .13669357E+01   .13490493E+01   .13303229E+01   .13107959E+01
   .12905092E+01   .12695045E+01   .12478247E+01   .12255136E+01   .12026156E+01
   .11791755E+01   .11552390E+01   .11308517E+01   .11060594E+01   .10809079E+01
   .10554431E+01   .10297103E+01   .10037547E+01   .97762078E+00   .95135249E+00
   .92499305E+00   .89858480E+00   .87216916E+00   .84578649E+00   .81947603E+00
   .79327581E+00   .76722257E+00   .74135170E+00   .71569718E+00   .69029150E+00
   .66516566E+00   .64034909E+00   .61586962E+00   .59175348E+00   .56802524E+00
   .54470782E+00   .52182248E+00   .49938883E+00   .47742479E+00   .45594663E+00
   .43496901E+00   .41450493E+00   .39456583E+00   .37516154E+00   .35630039E+00
   .33798920E+00   .32023331E+00   .30303667E+00   .28640183E+00   .27033004E+00
   .25482127E+00   .23987426E+00   .22548658E+00   .21165472E+00   .19837407E+00
   .18563907E+00   .17344319E+00   .16177905E+00   .15063842E+00   .14001233E+00
   .12989111E+00   .12026444E+00   .11112142E+00   .10245062E+00   .94240151E-01
   .86477683E-01   .79150542E-01   .72245736E-01   .65750013E-01   .59649912E-01
   .53931806E-01   .48581947E-01   .43586515E-01   .38931656E-01   .34603521E-01
   .30588304E-01   .26872279E-01   .23441834E-01   .20283498E-01   .17383978E-01
   .14730178E-01   .12309228E-01   .10108511E-01   .81156757E-02   .63186636E-02
   .47057214E-02   .32654184E-02   .19866595E-02   .85869663E-03  -.12886086E-03
  -.98603829E-03  -.17224889E-02  -.23474887E-02  -.28699333E-02  -.32983351E-02
  -.36408230E-02  -.39051429E-02  -.40986591E-02  -.42283573E-02  -.43008486E-02
  -.43223740E-02  -.42988110E-02  -.42356792E-02  -.41381487E-02  -.40110476E-02
  -.38588713E-02  -.36857912E-02  -.34956651E-02  -.32920476E-02  -.30782000E-02
  -.28571023E-02  -.26314636E-02  -.24037341E-02  -.21761165E-02  -.19505779E-02
  -.17288613E-02  -.15124975E-02  -.13028172E-02  -.11009619E-02  -.90789613E-03
  -.72441869E-03  -.55117372E-03  -.38866180E-03  -.23725075E-03  -.97186080E-04
   .31398785E-04   .14847260E-03   .25409672E-03   .34841592E-03   .43164948E-03
   .50408269E-03   .56605878E-03   .61797114E-03   .66025602E-03   .69338553E-03
   .71786116E-03   .73420761E-03   .74296701E-03   .74469359E-03   .73994871E-03
   .72929627E-03   .71329848E-03   .69251203E-03   .66748463E-03   .63875182E-03
   .60683424E-03   .57223509E-03   .53543804E-03   .49690531E-03   .45707618E-03
   .41636560E-03   .37516327E-03   .33383276E-03   .29271101E-03   .25210798E-03
   .21230651E-03   .17356238E-03   .13610452E-03   .10013545E-03   .65831741E-04
   .33344723E-04   .28012517E-05  -.25695408E-04  -.52064604E-04  -.76247247E-04
  -.98204685E-04  -.11791753E-03  -.13538445E-03  -.15062087E-03  -.16365778E-03
  -.17454036E-03  -.18332672E-03  -.19008661E-03  -.19490014E-03  -.19785652E-03
  -.19905279E-03  -.19859265E-03  -.19658529E-03  -.19314421E-03  -.18838619E-03
  -.18243026E-03  -.17539666E-03  -.16740596E-03  -.15857818E-03  -.14903197E-03
  -.13888389E-03  -.12824768E-03  -.11723367E-03  -.10594819E-03  -.94493092E-04
  -.82965304E-04  -.71456434E-04  -.60052466E-04  -.48833488E-04  -.37873487E-04
  -.27240195E-04  -.16994980E-04  -.71927988E-05   .21178157E-05   .10894718E-04
   .19102073E-04   .26710241E-04   .33695631E-04   .40040516E-04   .45732824E-04
   .50765900E-04   .55138248E-04   .58853251E-04   .61918874E-04   .64347351E-04
   .66154866E-04   .67361218E-04   .67989487E-04   .68065692E-04   .67618447E-04
   .66678624E-04   .65279010E-04   .63453981E-04   .61239170E-04   .58671156E-04
   .55787155E-04   .52624729E-04   .49221500E-04   .45614888E-04   .41841860E-04
   .37938689E-04   .33940745E-04   .29882286E-04   .25796279E-04   .21714235E-04
   .17666060E-04   .13679928E-04   .97821742E-05   .59971961E-05   .23473841E-05
  -.11469371E-05  -.44675492E-05  -.75983636E-05  -.10525431E-04  -.13236932E-04
  -.15723161E-04  -.17976488E-04  -.19991314E-04  -.21764014E-04  -.23292867E-04
  -.24577976E-04  -.25621185E-04  -.26425982E-04  -.26997398E-04  -.27341901E-04
  -.27467281E-04  -.27382539E-04  -.27097763E-04  -.26624015E-04  -.25973201E-04
  -.25157957E-04  -.24191522E-04  -.23087623E-04  -.21860353E-04  -.20524060E-04
  -.19093235E-04  -.17582401E-04  -.16006017E-04  -.14378373E-04  -.12713503E-04
  -.11025095E-04  -.93264151E-05  -.76302274E-05  -.59487320E-05  -.42935017E-05
  -.26754294E-05  -.11046808E-05   .40934495E-06   .18580483E-05   .32336553E-05
   .45292368E-05   .57387213E-05   .68569009E-05   .78794321E-05   .88028294E-05
   .96244546E-05   .10342500E-04   .10955965E-04   .11464634E-04   .11869043E-04
   .12170444E-04   .12370769E-04   .12472592E-04   .12479078E-04   .12393944E-04
   .12221407E-04   .11966138E-04   .11633207E-04   .11228036E-04   .10756347E-04
   .10224107E-04   .96374804E-05   .90027769E-05   .83264022E-05   .76148102E-05
   .68744554E-05   .61117486E-05   .53330141E-05   .45444483E-05   .37520826E-05
   .29617468E-05   .21790367E-05   .14092841E-05   .65752935E-06  -.71502266E-07
  -.77342194E-06  -.14441951E-05  -.20801562E-05  -.26780208E-05  -.32348938E-05
  -.37482757E-05  -.42160650E-05  -.46365585E-05  -.50084485E-05  -.53308175E-05
  -.56031302E-05  -.58252237E-05  -.59972950E-05  -.61198868E-05  -.61938713E-05
  -.62204321E-05  -.62010453E-05  -.61374586E-05  -.60316698E-05  -.58859035E-05
  -.57025884E-05  -.54843328E-05  -.52339003E-05  -.49541854E-05  -.46481883E-05
  -.43189913E-05  -.39697335E-05  -.36035879E-05  -.32237378E-05  -.28333545E-05
  -.24355754E-05  -.20334838E-05  -.16300892E-05  -.12283087E-05  -.83095004E-06
  -.44069580E-06  -.60088994E-07   .30847994E-06   .66278463E-06   .10007728E-05
   .13205745E-05   .16205094E-05   .18990920E-05   .21550355E-05   .23872541E-05
   .25948642E-05   .27771838E-05   .29337307E-05   .30642192E-05   .31685560E-05
   .32468342E-05   .32993273E-05   .33264808E-05   .33289040E-05   .33073605E-05
   .32627580E-05   .31961372E-05   .31086607E-05   .30016007E-05   .28763271E-05
   .27342947E-05   .25770305E-05   .24061207E-05   .22231983E-05   .20299297E-05
   .18280027E-05   .16191136E-05   .14049555E-05   .11872066E-05   .96751905E-06
   .74750815E-06   .52874238E-06   .31273393E-06   .10092990E-06  -.10529570E-06
  -.30464937E-06  -.49592454E-06  -.67800744E-06  -.84988194E-06  -.10106337E-05
  -.11594537E-05  -.12956401E-05  -.14186006E-05  -.15278531E-05  -.16230255E-05
  -.17038554E-05  -.17701884E-05  -.18219762E-05  -.18592739E-05  -.18822362E-05
  -.18911141E-05  -.18862495E-05  -.18680710E-05  -.18370880E-05  -.17938848E-05
  -.17391147E-05  -.16734930E-05  -.15977910E-05  -.15128283E-05  -.14194661E-05
  -.13186002E-05  -.12111533E-05  -.10980686E-05  -.98030184E-06  -.85881498E-06
  -.73456901E-06  -.60851743E-06  -.48159985E-06  -.35473582E-06  -.22881906E-06
  -.10471196E-06   .16759515E-07   .13481057E-06   .24870188E-06   .35774341E-06
   .46129795E-06   .55878398E-06   .64967823E-06   .73351775E-06   .80990140E-06
   .87849104E-06   .93901208E-06   .99125377E-06   .10350688E-05   .10703729E-05
   .10971432E-05   .11154175E-05   .11252916E-05   .11269176E-05   .11205014E-05
   .11062993E-05   .10846155E-05   .10557985E-05   .10202374E-05   .97835814E-06
   .93061986E-06   .87751060E-06   .81954321E-06   .75725117E-06   .69118439E-06
   .62190489E-06   .54998270E-06   .47599159E-06   .40050509E-06   .32409247E-06
   .24731492E-06   .17072188E-06   .94847489E-07   .20207340E-07  -.52704672E-07
  -.12341921E-06  -.19149410E-06  -.25651675E-06  -.31810625E-06  -.37591517E-06
  -.42963120E-06  -.47897838E-06  -.52371812E-06  -.56364993E-06  -.59861185E-06
  -.62848060E-06  -.65317152E-06  -.67263815E-06  -.68687165E-06  -.69589991E-06
  -.69978645E-06  -.69862912E-06  -.69255860E-06  -.68173665E-06  -.66635424E-06
  -.64662954E-06  -.62280575E-06  -.59514877E-06  -.56394485E-06  -.52949808E-06
  -.49212789E-06  -.45216644E-06  -.40995602E-06  -.36584645E-06  -.32019245E-06
  -.27335110E-06  -.22567928E-06  -.17753122E-06  -.12925608E-06  -.81195709E-07
  -.33682387E-07   .12963215E-07   .58433996E-07   .10243823E-06   .14470123E-06
   .18496686E-06   .22299884E-06   .25858199E-06   .29152315E-06   .32165207E-06
   .34882203E-06   .37291031E-06   .39381851E-06   .41147264E-06   .42582310E-06
   .43684446E-06   .44453506E-06   .44891650E-06   .45003297E-06   .44795038E-06
   .44275550E-06   .43455477E-06   .42347323E-06   .40965316E-06   .39325272E-06
   .37444454E-06   .35341412E-06   .33035834E-06   .30548379E-06   .27900514E-06
   .25114345E-06   .22212454E-06   .19217729E-06   .16153198E-06   .13041868E-06
   .99065670E-07   .67697869E-07   .36535375E-07   .57920337E-08  -.24325899E-07
  -.53621025E-07  -.81905973E-07  -.10900448E-06  -.13475238E-06  -.15899846E-06
  -.18160523E-06  -.20244961E-06  -.22142342E-06  -.23843385E-06  -.25340375E-06
  -.26627185E-06  -.27699280E-06  -.28553721E-06  -.29189144E-06  -.29605741E-06
  -.29805224E-06  -.29790782E-06  -.29567024E-06  -.29139920E-06  -.28516731E-06
  -.27705931E-06  -.26717121E-06  -.25560943E-06  -.24248978E-06  -.22793653E-06
  -.21208133E-06  -.19506215E-06  -.17702220E-06  -.15810883E-06  -.13847242E-06
  -.11826527E-06  -.97640507E-07  -.76751027E-07  -.55748409E-07  -.34781913E-07
  -.13997487E-07   .64631742E-08   .26463524E-07   .45873005E-07   .64567832E-07
   .82431708E-07   .99356481E-07   .11524273E-06   .13000026E-06   .14354858E-06
   .15581721E-06   .16674601E-06   .17628536E-06   .18439634E-06   .19105071E-06
   .19623095E-06   .19993016E-06   .20215187E-06   .20290983E-06   .20222770E-06
   .20013869E-06   .19668517E-06   .19191813E-06   .18589672E-06   .17868766E-06
   .17036462E-06   .16100755E-06   .15070207E-06   .13953870E-06   .12761217E-06
   .11502067E-06   .10186512E-06   .88248390E-07   .74274563E-07   .60048199E-07
   .45673591E-07   .31254050E-07   .16891207E-07   .26843463E-08  -.11270243E-07
  -.24879873E-07  -.38056030E-07  -.50714909E-07  -.62777904E-07  -.74172052E-07
  -.84830432E-07  -.94692511E-07  -.10370445E-06  -.11181933E-06  -.11899738E-06
  -.12520609E-06  -.13042029E-06  -.13462221E-06  -.13780148E-06  -.13995501E-06
  -.14108691E-06  -.14120833E-06  -.14033722E-06  -.13849812E-06  -.13572184E-06
  -.13204513E-06  -.12751034E-06  -.12216498E-06  -.11606133E-06  -.10925599E-06
  -.10180938E-06  -.93785274E-07  -.85250294E-07  -.76273389E-07  -.66925319E-07
  -.57278130E-07  -.47404633E-07  -.37377886E-07  -.27270680E-07  -.17155042E-07
  -.71017522E-08   .28201289E-08   .12543703E-07   .22004662E-07   .31141684E-07
   .39896803E-07   .48215755E-07   .56048282E-07   .63348413E-07   .70074699E-07
   .76190427E-07   .81663781E-07   .86467984E-07   .90581387E-07   .93987528E-07
   .96675158E-07   .98638222E-07   .99875812E-07   .10039208E-06   .10019612E-06
   .99301812E-07   .97727664E-07   .95496571E-07   .92635600E-07   .89175722E-07
   .85151531E-07   .80600941E-07   .75564864E-07   .70086874E-07   .64212863E-07
   .57990676E-07   .51469750E-07   .44700744E-07   .37735166E-07   .30624999E-07
   .23422339E-07   .16179023E-07   .89462849E-08   .17744014E-08  -.52876337E-08
  -.12192429E-07  -.18894498E-07  -.25350537E-07  -.31519693E-07  -.37363803E-07
  -.42847610E-07  -.47938963E-07  -.52608982E-07  -.56832205E-07  -.60586707E-07
  -.63854192E-07  -.66620057E-07  -.68873430E-07  -.70607188E-07  -.71817937E-07
  -.72505975E-07  -.72675232E-07  -.72333174E-07  -.71490700E-07  -.70162005E-07
  -.68364426E-07  -.66118274E-07  -.63446639E-07  -.60375185E-07  -.56931933E-07
  -.53147024E-07  -.49052476E-07  -.44681932E-07  -.40070400E-07  -.35253986E-07
  -.30269630E-07  -.25154833E-07  -.19947387E-07  -.14685113E-07  -.94055931E-08
  -.41459193E-08   .10575599E-08   .61694768E-08   .11155675E-07   .15983424E-07
   .20621626E-07   .25041002E-07   .29214269E-07   .33116292E-07   .36724227E-07
   .40017641E-07   .42978614E-07   .45591825E-07   .47844617E-07   .49727036E-07
   .51231865E-07   .52354623E-07   .53093559E-07   .53449615E-07   .53426379E-07
   .53030019E-07   .52269197E-07   .51154972E-07   .49700683E-07   .47921823E-07
   .45835895E-07   .43462261E-07   .40821979E-07   .37937627E-07   .34833127E-07
   .31533555E-07   .28064951E-07   .24454124E-07   .20728451E-07   .16915681E-07
   .13043738E-07   .91405227E-08   .52337190E-08   .13506079E-08  -.24821169E-08
  -.62385243E-08  -.98936138E-08  -.13423475E-07  -.16805434E-07  -.20018196E-07
  -.23041967E-07  -.25858570E-07  -.28451547E-07  -.30806245E-07  -.32909889E-07
  -.34751647E-07  -.36322669E-07  -.37616120E-07  -.38627202E-07  -.39353147E-07
  -.39793212E-07  -.39948653E-07  -.39822683E-07  -.39420421E-07  -.38748831E-07
  -.37816642E-07  -.36634262E-07  -.35213681E-07  -.33568364E-07  -.31713136E-07
  -.29664059E-07  -.27438300E-07  -.25053999E-07  -.22530126E-07  -.19886338E-07
  -.17142832E-07  -.14320199E-07  -.11439273E-07  -.85209856E-08  -.55862166E-08
  -.26556521E-08   .25035671E-09   .31119293E-08   .59097870E-08   .86253772E-08
   .11240992E-07   .13739877E-07   .16106336E-07   .18325821E-07   .20385020E-07
   .22271926E-07   .23975907E-07   .25487756E-07   .26799733E-07   .27905601E-07
   .28800646E-07   .29481685E-07   .29947070E-07   .30196672E-07   .30231866E-07
   .30055496E-07   .29671832E-07   .29086528E-07   .28306552E-07   .27340127E-07
   .26196653E-07   .24886626E-07   .23421548E-07   .21813832E-07   .20076709E-07
   .18224116E-07   .16270596E-07   .14231186E-07   .12121304E-07   .99566428E-08
   .77530491E-08   .55264179E-08   .32925792E-08   .10671890E-08  -.11343758E-08
  -.32971209E-08  -.54065323E-08  -.74486710E-08  -.94102606E-08  -.11278771E-07
  -.13042493E-07  -.14690611E-07  -.16213263E-07  -.17601595E-07  -.18847810E-07
  -.19945208E-07  -.20888215E-07  -.21672408E-07  -.22294525E-07  -.22752481E-07
  -.23045354E-07  -.23173386E-07  -.23137959E-07  -.22941571E-07  -.22587804E-07
  -.22081284E-07  -.21427635E-07  -.20633424E-07  -.19706107E-07  -.18653959E-07
  -.17486011E-07  -.16211975E-07  -.14842167E-07  -.13387426E-07  -.11859036E-07
  -.10268636E-07  -.86281406E-08  -.69496475E-08  -.52453562E-08  -.35274794E-08
  -.18081591E-08  -.99383042E-10   .15870961E-08   .32398389E-08   .48477948E-08
   .64003726E-08   .78875084E-08   .92997278E-08   .10628204E-07   .11864810E-07
   .13002166E-07   .14033680E-07   .14953583E-07   .15756957E-07   .16439763E-07
   .16998848E-07   .17431963E-07   .17737765E-07   .17915810E-07   .17966549E-07
   .17891311E-07   .17692284E-07   .17372483E-07   .16935726E-07   .16386590E-07
   .15730376E-07   .14973055E-07   .14121223E-07   .13182049E-07   .12163210E-07
   .11072838E-07   .99194571E-08   .87119147E-08   .74593206E-08   .61709786E-08
   .48563195E-08   .35248343E-08   .21860074E-08   .84925134E-09  -.47615781E-09
  -.17811429E-08  -.30568862E-08  -.42948867E-08  -.54870155E-08  -.66255669E-08
  -.77033069E-08  -.87135164E-08  -.96500322E-08  -.10507282E-07  -.11280314E-07
  -.11964828E-07  -.12557190E-07  -.13054455E-07  -.13454375E-07  -.13755407E-07
  -.13956714E-07  -.14058162E-07  -.14060315E-07  -.13964415E-07  -.13772373E-07
  -.13486742E-07  -.13110692E-07  -.12647982E-07  -.12102925E-07  -.11480351E-07
  -.10785568E-07  -.10024319E-07  -.92027364E-08  -.83272928E-08  -.74047553E-08
  -.64421328E-08  -.54466246E-08  -.44255685E-08  -.33863878E-08  -.23365391E-08
  -.12834599E-08  -.23451766E-09   .80304084E-09   .18221379E-08   .28159120E-08
   .37777626E-08   .47013929E-08   .55808492E-08   .64105585E-08   .71853622E-08
   .79005465E-08   .85518700E-08   .91355869E-08   .96484671E-08   .10087812E-07
   .10451468E-07   .10737831E-07   .10945856E-07   .11075054E-07   .11125488E-07
   .11097770E-07   .10993044E-07   .10812978E-07   .10559741E-07   .10235983E-07
   .98448148E-08   .93897741E-08   .88748010E-08   .83042035E-08   .76826241E-08
   .70150028E-08   .63065399E-08   .55626565E-08   .47889540E-08   .39911739E-08
   .31751554E-08   .23467942E-08   .15120011E-08   .67666033E-09  -.15341040E-09
 atomic pseudo charge-density
   .20000000E+01   .19954759E+01   .19819632E+01   .19596394E+01   .19287957E+01
   .18898298E+01   .18432365E+01   .17895968E+01   .17295641E+01   .16638504E+01
   .15932114E+01   .15184309E+01   .14403065E+01   .13596345E+01   .12771975E+01
   .11937518E+01   .11100170E+01   .10266674E+01   .94432470E+00   .86355268E+00
   .78485365E+00   .70866622E+00   .63536483E+00   .56526036E+00   .49860200E+00
   .43557998E+00   .37632909E+00   .32093279E+00   .26942763E+00   .22180806E+00
   .17803120E+00   .13802171E+00   .10167650E+00   .68869304E-01   .39454947E-01
   .13273358E-01  -.98467463E-02  -.30084521E-01  -.47624006E-01  -.62651477E-01
  -.75353140E-01  -.85913150E-01  -.94511929E-01  -.10132477E+00  -.10652072E+00
  -.11026164E+00  -.11270158E+00  -.11398623E+00  -.11425262E+00  -.11362893E+00
  -.11223441E+00  -.11017948E+00  -.10756581E+00  -.10448654E+00  -.10102659E+00
  -.97262942E-01  -.93264987E-01  -.89094941E-01  -.84808225E-01  -.80453883E-01
  -.76074998E-01  -.71709115E-01  -.67388653E-01  -.63141310E-01  -.58990464E-01
  -.54955547E-01  -.51052420E-01  -.47293714E-01  -.43689168E-01  -.40245937E-01
  -.36968888E-01  -.33860872E-01  -.30922976E-01  -.28154764E-01  -.25554486E-01
  -.23119279E-01  -.20845347E-01  -.18728124E-01  -.16762422E-01  -.14942558E-01
  -.13262479E-01  -.11715858E-01  -.10296193E-01  -.89968813E-02  -.78112898E-02
  -.67328165E-02  -.57549389E-02  -.48712571E-02  -.40755287E-02  -.33616971E-02
  -.27239145E-02  -.21565589E-02  -.16542472E-02  -.12118440E-02  -.82446708E-03
  -.48748960E-03  -.19654023E-03   .52499237E-04   .26349798E-03   .44008162E-03
   .58563898E-03   .70332970E-03   .79609265E-03   .86665476E-03   .91754034E-03
   .95108049E-03   .96942268E-03   .97454036E-03   .96824236E-03   .95218227E-03
   .92786756E-03   .89666839E-03   .85982626E-03   .81846224E-03   .77358493E-03
   .72609806E-03   .67680780E-03   .62642966E-03   .57559511E-03   .52485780E-03
   .47469957E-03   .42553600E-03   .37772176E-03   .33155562E-03   .28728522E-03
   .24511148E-03   .20519285E-03   .16764923E-03   .13256575E-03   .99996182E-04
   .69966290E-04   .42476854E-04   .17506562E-04  -.49853046E-05  -.25056372E-04
  -.42778833E-04  -.58237279E-04  -.71526688E-04  -.82750559E-04  -.92019191E-04
  -.99448105E-04  -.10515659E-03  -.10926637E-03  -.11190041E-03  -.11318184E-03
  -.11323292E-03  -.11217423E-03  -.11012385E-03  -.10719669E-03  -.10350389E-03
  -.99152332E-04  -.94244174E-04  -.88876531E-04  -.83141171E-04  -.77124304E-04
  -.70906419E-04  -.64562188E-04  -.58160416E-04  -.51764036E-04  -.45430156E-04
  -.39210138E-04  -.33149712E-04  -.27289131E-04  -.21663338E-04  -.16302173E-04
  -.11230587E-04  -.64688817E-05  -.20329610E-05   .20654092E-05   .58183298E-05
   .92214935E-05   .12273906E-04   .14977606E-04   .17337388E-04   .19360528E-04
   .21056510E-04   .22436768E-04   .23514423E-04   .24304042E-04   .24821398E-04
   .25083244E-04   .25107099E-04   .24911048E-04   .24513547E-04   .23933250E-04
   .23188845E-04   .22298904E-04   .21281744E-04   .20155305E-04   .18937037E-04
   .17643805E-04   .16291800E-04   .14896466E-04   .13472437E-04   .12033488E-04
   .10592492E-04   .91613889E-05   .77511651E-05   .63718409E-05   .50324653E-05
   .37411194E-05   .25049264E-05   .13300679E-05   .22180585E-06  -.81549008E-06
  -.17783110E-05  -.26639732E-05  -.34705789E-05  -.41969746E-05  -.48427070E-05
  -.54079765E-05  -.58935901E-05  -.63009128E-05  -.66318187E-05  -.68886419E-05
  -.70741274E-05  -.71913828E-05  -.72438307E-05  -.72351620E-05  -.71692907E-05
  -.70503105E-05  -.68824523E-05  -.66700446E-05  -.64174754E-05  -.61291559E-05
  -.58094876E-05  -.54628301E-05  -.50934730E-05  -.47056087E-05  -.43033086E-05
  -.38905014E-05  -.34709536E-05  -.30482529E-05  -.26257932E-05  -.22067627E-05
  -.17941333E-05  -.13906531E-05  -.99884026E-06  -.62097895E-06  -.25911734E-06
   .84932787E-07   .40959478E-06   .71352428E-06   .99560503E-06   .12549433E-05
   .14908610E-05   .17028885E-05   .18907549E-05   .20543794E-05   .21938604E-05
   .23094648E-05   .24016164E-05   .24708845E-05   .25179712E-05   .25436995E-05
   .25490006E-05   .25349017E-05   .25025133E-05   .24530171E-05   .23876540E-05
   .23077122E-05   .22145156E-05   .21094133E-05   .19937683E-05   .18689478E-05
   .17363136E-05   .15972127E-05   .14529693E-05   .13048766E-05   .11541896E-05
   .10021187E-05   .84982366E-06   .69840811E-06   .54891515E-06   .40232320E-06
   .25954264E-06   .12141305E-06  -.11298912E-07  -.13790112E-06  -.25777694E-06
  -.37038570E-06  -.47526261E-06  -.57201821E-06  -.66033735E-06  -.73997771E-06
  -.81076796E-06  -.87260553E-06  -.92545402E-06  -.96934037E-06  -.10043517E-05
  -.10306319E-05  -.10483780E-05  -.10578367E-05  -.10593000E-05  -.10531016E-05
  -.10396126E-05  -.10192374E-05  -.99240963E-06  -.95958791E-06  -.92125170E-06
  -.87789731E-06  -.83003384E-06  -.77817934E-06  -.72285701E-06  -.66459153E-06
  -.60390561E-06  -.54131664E-06  -.47733356E-06  -.41245388E-06  -.34716093E-06
  -.28192130E-06  -.21718253E-06  -.15337094E-06  -.90889783E-07  -.30117527E-07
   .28593576E-07   .84918724E-07   .13856158E-06   .18925504E-06   .23676185E-06
   .28087494E-06   .32141760E-06   .35824345E-06   .39123626E-06   .42030950E-06
   .44540582E-06   .46649631E-06   .48357966E-06   .49668114E-06   .50585144E-06
   .51116547E-06   .51272100E-06   .51063721E-06   .50505316E-06   .49612624E-06
   .48403048E-06   .46895490E-06   .45110178E-06   .43068490E-06   .40792782E-06
   .38306210E-06   .35632557E-06   .32796060E-06   .29821240E-06   .26732741E-06
   .23555162E-06   .20312907E-06   .17030033E-06   .13730111E-06   .10436086E-06
   .71701552E-07   .39536449E-07   .80690516E-08  -.22507926E-07  -.52013454E-07
  -.80278996E-07  -.10714921E-06  -.13248257E-06  -.15615182E-06  -.17804445E-06
  -.19806292E-06  -.21612489E-06  -.23216334E-06  -.24612650E-06  -.25797785E-06
  -.26769584E-06  -.27527370E-06  -.28071901E-06  -.28405332E-06  -.28531161E-06
  -.28454170E-06  -.28180364E-06  -.27716894E-06  -.27071987E-06  -.26254864E-06
  -.25275651E-06  -.24145295E-06  -.22875468E-06  -.21478480E-06  -.19967174E-06
  -.18354837E-06  -.16655098E-06  -.14881834E-06  -.13049071E-06  -.11170892E-06
  -.92613381E-07  -.73343237E-07  -.54035448E-07  -.34823949E-07  -.15838844E-07
   .27943636E-08   .20955493E-07   .38530357E-07   .55411377E-07   .71498153E-07
   .86697961E-07   .10092620E-06   .11410679E-06   .12617245E-06   .13706501E-06
   .14673556E-06   .15514459E-06   .16226207E-06   .16806743E-06   .17254951E-06
   .17570643E-06   .17754543E-06   .17808260E-06   .17734262E-06   .17535842E-06
   .17217078E-06   .16782788E-06   .16238487E-06   .15590333E-06   .14845071E-06
   .14009981E-06   .13092813E-06   .12101728E-06   .11045234E-06   .99321204E-07
   .87713953E-07   .75722167E-07   .63438290E-07   .50954978E-07   .38364461E-07
   .25757916E-07   .13224864E-07   .85258506E-09  -.11274441E-07  -.23075066E-07
  -.34471970E-07  -.45392126E-07  -.55767227E-07  -.65534075E-07  -.74634922E-07
  -.83017778E-07  -.90636668E-07  -.97451842E-07  -.10342995E-06  -.10854414E-06
  -.11277417E-06  -.11610639E-06  -.11853375E-06  -.12005575E-06  -.12067828E-06
  -.12041351E-06  -.11927969E-06  -.11730091E-06  -.11450685E-06  -.11093244E-06
  -.10661758E-06  -.10160672E-06  -.95948501E-07  -.89695346E-07  -.82903009E-07
  -.75630138E-07  -.67937808E-07  -.59889049E-07  -.51548368E-07  -.42981266E-07
  -.34253757E-07  -.25431890E-07  -.16581282E-07  -.77666524E-08   .94862066E-09
   .95029308E-08   .17836855E-07   .25893546E-07   .33619092E-07   .40962862E-07
   .47877813E-07   .54320773E-07   .60252688E-07   .65638839E-07   .70449021E-07
   .74657696E-07   .78244099E-07   .81192313E-07   .83491315E-07   .85134973E-07
   .86122019E-07   .86455985E-07   .86145098E-07   .85202157E-07   .83644365E-07
   .81493139E-07   .78773893E-07   .75515790E-07   .71751478E-07   .67516797E-07
   .62850471E-07   .57793787E-07   .52390251E-07   .46685243E-07   .40725655E-07
   .34559529E-07   .28235687E-07   .21803366E-07   .15311850E-07   .88101099E-08
   .23464511E-08  -.40318332E-08  -.10278791E-07  -.16350131E-07  -.22203519E-07
  -.27798867E-07  -.33098588E-07  -.38067840E-07  -.42674741E-07  -.46890562E-07
  -.50689892E-07  -.54050779E-07  -.56954841E-07  -.59387349E-07  -.61337288E-07
  -.62797381E-07  -.63764093E-07  -.64237602E-07  -.64221746E-07  -.63723943E-07
  -.62755086E-07  -.61329411E-07  -.59464350E-07  -.57180352E-07  -.54500691E-07
  -.51451256E-07  -.48060317E-07  -.44358289E-07  -.40377472E-07  -.36151784E-07
  -.31716491E-07  -.27107922E-07  -.22363185E-07  -.17519881E-07  -.12615816E-07
  -.76887195E-08  -.27759592E-08   .20857284E-08   .68605050E-08   .11513686E-07
   .16011982E-07   .20323732E-07   .24419113E-07   .28270343E-07   .31851857E-07
   .35140470E-07   .38115520E-07   .40758985E-07   .43055586E-07   .44992861E-07
   .46561226E-07   .47754002E-07   .48567429E-07   .49000657E-07   .49055711E-07
   .48737438E-07   .48053434E-07   .47013948E-07   .45631772E-07   .43922113E-07
   .41902439E-07   .39592327E-07   .37013282E-07   .34188550E-07   .31142922E-07
   .27902526E-07   .24494613E-07   .20947334E-07   .17289522E-07   .13550456E-07
   .97596463E-08   .59465972E-08   .21405916E-08  -.16295299E-08  -.53355809E-08
  -.89502338E-08  -.12447215E-07  -.15801491E-07  -.18989438E-07  -.21989010E-07
  -.24779877E-07  -.27343561E-07  -.29663554E-07  -.31725411E-07  -.33516843E-07
  -.35027772E-07  -.36250386E-07  -.37179168E-07  -.37810908E-07  -.38144696E-07
  -.38181902E-07  -.37926139E-07  -.37383201E-07  -.36560996E-07  -.35469457E-07
  -.34120444E-07  -.32527624E-07  -.30706351E-07  -.28673521E-07  -.26447430E-07
  -.24047615E-07  -.21494689E-07  -.18810171E-07  -.16016311E-07  -.13135913E-07
  -.10192152E-07  -.72083915E-08  -.42080090E-08  -.12142117E-08   .17501357E-08
   .46626816E-08   .75017515E-08   .10246505E-07   .12877086E-07   .15374758E-07
   .17722039E-07   .19902816E-07   .21902450E-07   .23707876E-07   .25307675E-07
   .26692147E-07   .27853365E-07   .28785208E-07   .29483392E-07   .29945475E-07
   .30170859E-07   .30160769E-07   .29918219E-07   .29447973E-07   .28756482E-07
   .27851818E-07   .26743592E-07   .25442857E-07   .23962014E-07   .22314694E-07
   .20515641E-07   .18580587E-07   .16526119E-07   .14369536E-07   .12128719E-07
   .98219737E-08   .74678961E-08   .50852191E-08   .26926703E-08   .30882676E-09
  -.20480250E-08  -.43600266E-08  -.66098799E-08  -.87809730E-08  -.10857500E-07
  -.12824574E-07  -.14668329E-07  -.16376015E-07  -.17936084E-07  -.19338264E-07
  -.20573622E-07  -.21634619E-07  -.22515151E-07  -.23210576E-07  -.23717740E-07
  -.24034976E-07  -.24162104E-07  -.24100412E-07  -.23852632E-07  -.23422902E-07
  -.22816714E-07  -.22040859E-07  -.21103360E-07  -.20013393E-07  -.18781206E-07
  -.17418023E-07  -.15935953E-07  -.14347880E-07  -.12667356E-07  -.10908492E-07
  -.90858380E-08  -.72142689E-08  -.53088644E-08  -.33847905E-08  -.14571813E-08
   .45897746E-09   .23489624E-08   .41984236E-08   .59934907E-08   .77208751E-08
   .93679657E-08   .10922919E-07   .12374741E-07   .13713364E-07   .14929713E-07
   .16015764E-07   .16964595E-07   .17770426E-07   .18428655E-07   .18935871E-07
   .19289878E-07   .19489690E-07   .19535528E-07   .19428806E-07   .19172103E-07
   .18769133E-07   .18224702E-07   .17544659E-07   .16735840E-07   .15806000E-07
   .14763748E-07   .13618466E-07   .12380232E-07   .11059729E-07   .96681616E-08
   .82171569E-08   .67186744E-08   .51849077E-08   .36281873E-08   .20608839E-08
   .49531203E-09  -.10563652E-08  -.25822284E-08  -.40706920E-08  -.55105899E-08
  -.68912581E-08  -.82026114E-08  -.94352157E-08  -.10580353E-07  -.11630084E-07
  -.12577297E-07  -.13415756E-07  -.14140143E-07  -.14746081E-07  -.15230166E-07
  -.15589980E-07  -.15824095E-07  -.15932079E-07  -.15914486E-07  -.15772841E-07
  -.15509618E-07  -.15128209E-07  -.14632890E-07  -.14028776E-07  -.13321775E-07
  -.12518529E-07  -.11626360E-07  -.10653201E-07  -.96075294E-08  -.84982966E-08
  -.73348510E-08  -.61268623E-08  -.48842427E-08  -.36170668E-08  -.23354918E-08
  -.10496775E-08   .23029287E-09   .14944904E-08   .27332158E-08   .39370730E-08
   .50970384E-08   .62045278E-08   .72514582E-08   .82303056E-08   .91341574E-08
   .99567603E-08   .10692561E-07   .11336744E-07   .11885259E-07   .12334846E-07
   .12683051E-07   .12928238E-07   .13069593E-07   .13107120E-07   .13041634E-07
   .12874748E-07   .12608845E-07   .12247060E-07   .11793243E-07   .11251920E-07
   .10628256E-07   .99280017E-08   .91574474E-08   .83233660E-08   .74329554E-08
   .64937781E-08   .55136982E-08   .45008171E-08   .34634074E-08   .24098468E-08
   .13485516E-08   .28791043E-09  -.76378092E-09  -.17983833E-08  -.28079761E-08
  -.37849171E-08  -.47218990E-08  -.56120031E-08  -.64487494E-08  -.72261429E-08
  -.79387149E-08  -.85815608E-08  -.91503725E-08  -.96414656E-08  -.10051802E-07
  -.10379008E-07  -.10621383E-07  -.10777910E-07  -.10848253E-07  -.10832754E-07
  -.10732425E-07  -.10548930E-07  -.10284567E-07  -.99422444E-08  -.95254503E-08
  -.90382203E-08  -.84851000E-08  -.78711041E-08  -.72016729E-08  -.64826249E-08
  -.57201076E-08  -.49205462E-08  -.40905902E-08  -.32370594E-08  -.23668883E-08
  -.14870716E-08  -.60460780E-09   .27355485E-09   .11405726E-08   .19897585E-08
   .28146332E-08   .36089737E-08   .43668593E-08   .50827150E-08   .57513514E-08
   .63680018E-08   .69283550E-08   .74285846E-08   .78653740E-08   .82359372E-08
   .85380355E-08   .87699893E-08   .89306858E-08   .90195819E-08   .90367029E-08
   .89826366E-08   .88585230E-08   .86660398E-08   .84073842E-08   .80852503E-08
   .77028030E-08   .72636487E-08   .67718026E-08   .62316530E-08   .56479238E-08
   .50256334E-08   .43700530E-08   .36866628E-08   .29811066E-08   .22591465E-08
   .15266160E-08   .78937418E-09   .53259070E-10  -.67595767E-09  -.13926154E-08
  -.20912078E-08  -.27664244E-08  -.34131904E-08  -.40267044E-08  -.46024727E-08
  -.51363423E-08  -.56245294E-08  -.60636463E-08  -.64507234E-08  -.67832288E-08
  -.70590837E-08  -.72766745E-08  -.74348609E-08  -.75329801E-08  -.75708478E-08
  -.75487543E-08  -.74674585E-08  -.73281767E-08  -.71325690E-08  -.68827220E-08
  -.65811282E-08  -.62306626E-08  -.58345564E-08  -.53963683E-08  -.49199534E-08
  -.44094300E-08  -.38691448E-08  -.33036366E-08  -.27175988E-08  -.21158410E-08
  -.15032503E-08  -.88475192E-09  -.26527037E-09   .35030940E-09   .95717991E-09
   .15506482E-08   .21261717E-08   .26793923E-08   .32061691E-08   .37026086E-08
   .41650934E-08   .45903074E-08   .49752595E-08   .53173040E-08   .56141577E-08
   .58639151E-08   .60650592E-08   .62164700E-08   .63174295E-08   .63676237E-08
   .63671411E-08   .63164683E-08   .62164821E-08   .60684396E-08   .58739638E-08
   .56350282E-08   .53539376E-08   .50333068E-08   .46760373E-08   .42852916E-08
   .38644659E-08   .34171612E-08   .29471530E-08   .24583601E-08   .19548122E-08
   .14406172E-08   .91992817E-09   .39691029E-09  -.12429216E-09  -.63958817E-09
  -.11449717E-08  -.16365524E-08  -.21105853E-08  -.25634987E-08  -.29919208E-08
  -.33927043E-08  -.37629492E-08  -.41000232E-08  -.44015801E-08  -.46655752E-08
  -.48902791E-08  -.50742879E-08  -.52165318E-08  -.53162796E-08  -.53731420E-08
  -.53870712E-08  -.53583582E-08  -.52876271E-08  -.51758274E-08  -.50242234E-08
  -.48343812E-08  -.46081537E-08  -.43476633E-08  -.40552828E-08  -.37336142E-08
  -.33854662E-08  -.30138301E-08  -.26218548E-08  -.22128202E-08  -.17901105E-08
  -.13571862E-08  -.91755662E-09  -.47475134E-09  -.32292581E-10   .40633263E-09
   .83769955E-09   .12584722E-08   .16654286E-08   .20554854E-08   .24257206E-08
   .27733955E-08   .30959739E-08   .33911410E-08   .36568191E-08   .38911820E-08
   .40926669E-08   .42599847E-08   .43921272E-08   .44883728E-08   .45482895E-08
   .45717358E-08   .45588587E-08   .45100906E-08   .44261429E-08   .43079978E-08
   .41568987E-08   .39743371E-08   .37620397E-08   .35219516E-08   .32562198E-08
   .29671743E-08   .26573078E-08   .23292548E-08   .19857698E-08   .16297038E-08
   .12639820E-08   .89157914E-09   .51549605E-09   .13873575E-09  -.23572031E-09
 10.2045203383261871 T
 Non local Part
 0 2 2.40697587174278071
 2.53045826165474841 0.107480865043952462 0.107480865043952462 0.220340175984482023
 Reciprocal Space Part
   .25735915E+02   .25696717E+02   .25579441E+02   .25385034E+02   .25115063E+02
   .24771695E+02   .24357672E+02   .23876276E+02   .23331293E+02   .22726967E+02
   .22067952E+02   .21359256E+02   .20606182E+02   .19814274E+02   .18989251E+02
   .18136944E+02   .17263235E+02   .16373994E+02   .15475020E+02   .14571982E+02
   .13670365E+02   .12775417E+02   .11892109E+02   .11025085E+02   .10178634E+02
   .93566548E+01   .85626347E+01   .77996299E+01   .70702547E+01   .63766752E+01
   .57206098E+01   .51033353E+01   .45256982E+01   .39881307E+01   .34906720E+01
   .30329932E+01   .26144251E+01   .22339900E+01   .18904352E+01   .15822674E+01
   .13077896E+01   .10651371E+01   .85231434E+00   .66722984E+00   .50773114E+00
   .37163726E+00   .25676927E+00   .16097839E+00   .82171341E-01   .18332734E-01
  -.32455699E-01  -.71999076E-01  -.10197660E+00  -.12393202E+00  -.13926718E+00
  -.14923864E+00  -.15495706E+00  -.15738914E+00  -.15736193E+00  -.15556918E+00
  -.15257941E+00  -.14884536E+00  -.14471466E+00  -.14044115E+00  -.13619679E+00
  -.13208367E+00  -.12814603E+00  -.12438181E+00  -.12075380E+00  -.11719991E+00
  -.11364262E+00  -.10999735E+00  -.10617976E+00  -.10211185E+00  -.97726863E-01
  -.92973005E-01  -.87816043E-01  -.82240775E-01  -.76251516E-01  -.69871679E-01
  -.63142565E-01  -.56121493E-01  -.48879401E-01  -.41498059E-01  -.34067010E-01
  -.26680391E-01  -.19433744E-01  -.12420921E-01  -.57311989E-02   .55332444E-03
   .63599809E-02   .11627375E-01   .16306784E-01   .20363100E-01   .23775303E-01
   .26536481E-01   .28653426E-01   .30145829E-01   .31045139E-01   .31393126E-01
 Real Space Part
   .73465418E+01   .73441832E+01   .73370663E+01   .73250693E+01   .73079935E+01
   .72855707E+01   .72574718E+01   .72233185E+01   .71826964E+01   .71351693E+01
   .70802950E+01   .70176413E+01   .69468017E+01   .68674115E+01   .67791620E+01
   .66818144E+01   .65752111E+01   .64592854E+01   .63340693E+01   .61996981E+01
   .60564133E+01   .59045618E+01   .57445937E+01   .55770571E+01   .54025908E+01
   .52219147E+01   .50358191E+01   .48451520E+01   .46508059E+01   .44537034E+01
   .42547836E+01   .40549868E+01   .38552420E+01   .36564527E+01   .34594861E+01
   .32651616E+01   .30742424E+01   .28874273E+01   .27053458E+01   .25285529E+01
   .23575278E+01   .21926723E+01   .20343124E+01   .18826995E+01   .17380145E+01
   .16003718E+01   .14698244E+01   .13463695E+01   .12299548E+01   .11204846E+01
   .10178258E+01   .92181420E+00   .83226015E+00   .74895369E+00   .67166942E+00
   .60017074E+00   .53421340E+00   .47354860E+00   .41792545E+00   .36709288E+00
   .32080115E+00   .27880290E+00   .24085392E+00   .20671358E+00   .17614518E+00
   .14891614E+00   .12479814E+00   .10356725E+00   .85004200E-01   .68894593E-01
   .55029329E-01   .43205070E-01   .33224822E-01   .24898595E-01   .18044122E-01
   .12487608E-01   .80644780E-02   .46200891E-02   .20103711E-02   .10236964E-03
  -.12253393E-02  -.20823832E-02  -.25664906E-02  -.27635607E-02  -.27479067E-02
  -.25826662E-02  -.23203678E-02  -.20036340E-02  -.16660013E-02  -.13328277E-02
  -.10222629E-02  -.74625016E-03  -.51153247E-03  -.32063502E-03  -.17280030E-03
  -.64854362E-04   .80127352E-05   .51564859E-04   .71944121E-04   .75204996E-04
 Reciprocal Space Part
  -.62109828E+00  -.74817876E+00  -.11274347E+01  -.17529429E+01  -.26149429E+01
  -.37000008E+01  -.49912363E+01  -.64686053E+01  -.81092359E+01  -.98878100E+01
  -.11776983E+02  -.13747838E+02  -.15770356E+02  -.17813908E+02  -.19847752E+02
  -.21841519E+02  -.23765696E+02  -.25592087E+02  -.27294240E+02  -.28847847E+02
  -.30231095E+02  -.31424974E+02  -.32413529E+02  -.33184059E+02  -.33727258E+02
  -.34037289E+02  -.34111809E+02  -.33951922E+02  -.33562088E+02  -.32949962E+02
  -.32126201E+02  -.31104204E+02  -.29899831E+02  -.28531079E+02  -.27017728E+02
  -.25380973E+02  -.23643042E+02  -.21826806E+02  -.19955392E+02  -.18051806E+02
  -.16138565E+02  -.14237364E+02  -.12368754E+02  -.10551864E+02  -.88041526E+01
  -.71412012E+01  -.55765490E+01  -.41215706E+01  -.27853975E+01  -.15748833E+01
  -.49461118E+00   .45305807E+00   .12679003E+01   .19517074E+01   .25081367E+01
   .29425334E+01   .32617315E+01   .34738380E+01   .35880059E+01   .36141996E+01
   .35629596E+01   .34451698E+01   .32718326E+01   .30538558E+01   .28018552E+01
   .25259755E+01   .22357327E+01   .19398798E+01   .16462978E+01   .13619115E+01
   .10926317E+01   .84332337E+00   .61779755E+00   .41882745E+00   .24818551E+00
   .10669998E+00  -.56718041E-02  -.89756114E-01  -.14706443E+00  -.17968695E+00
  -.19018104E+00  -.18145758E+00  -.15666807E+00  -.11909512E+00  -.72048772E-01
  -.18770730E-01   .37651581E-01   .94359783E-01   .14878698E+00   .19870712E+00
   .24227102E+00   .27802893E+00   .30494007E+00   .32236983E+00   .33007544E+00
   .32818147E+00   .31714637E+00   .29772172E+00   .27090569E+00   .23789255E+00
 Real Space Part
  -.26793180E+02  -.26791706E+02  -.26786985E+02  -.26778119E+02  -.26763626E+02
  -.26741464E+02  -.26709066E+02  -.26663376E+02  -.26600905E+02  -.26517787E+02
  -.26409853E+02  -.26272704E+02  -.26101795E+02  -.25892531E+02  -.25640363E+02
  -.25340889E+02  -.24989958E+02  -.24583781E+02  -.24119028E+02  -.23592938E+02
  -.23003407E+02  -.22349081E+02  -.21629431E+02  -.20844815E+02  -.19996531E+02
  -.19086845E+02  -.18119007E+02  -.17097241E+02  -.16026717E+02  -.14913504E+02
  -.13764502E+02  -.12587346E+02  -.11390304E+02  -.10182151E+02  -.89720277E+01
  -.77692956E+01  -.65833757E+01  -.54235893E+01  -.42989957E+01  -.32182337E+01
  -.21893716E+01  -.12197665E+01  -.31593945E+00   .51653222E+00   .12731030E+01
   .19503247E+01   .25458883E+01   .30586418E+01   .34885834E+01   .38368304E+01
   .41055659E+01   .42979638E+01   .44180957E+01   .44708211E+01   .44616652E+01
   .43966874E+01   .42823436E+01   .41253460E+01   .39325248E+01   .37106939E+01
   .34665247E+01   .32064303E+01   .29364629E+01   .26622251E+01   .23887983E+01
   .21206876E+01   .18617841E+01   .16153442E+01   .13839858E+01   .11696991E+01
   .97387213E+00   .79732798E+00   .64037212E+00   .50284798E+00   .38419808E+00
   .28352889E+00   .19967695E+00   .13127451E+00   .76812752E-01   .34701008E-01
   .33207308E-02  -.18926824E-01  -.33579917E-01  -.42083055E-01  -.45761264E-01
  -.45801763E-01  -.43242694E-01  -.38968312E-01  -.33709958E-01  -.28051933E-01
  -.22441415E-01  -.17201434E-01  -.12546017E-01  -.85965834E-02  -.53987954E-02
  -.29391269E-02  -.11605515E-02   .23143418E-04   .71477497E-03   .10231498E-02
 Non local Part
 1 2 2.40697587174278071
 2.08892054390245896 -0.203204659042270946 -0.203204659042270946 1.87109743859163702
 Reciprocal Space Part
   .00000000E+00   .10027550E+01   .19960936E+01   .29707379E+01   .39176849E+01
   .48283368E+01   .56946244E+01   .65091205E+01   .72651409E+01   .79568322E+01
   .85792441E+01   .91283848E+01   .96012599E+01   .99958929E+01   .10311329E+02
   .10547618E+02   .10705788E+02   .10787792E+02   .10796451E+02   .10735376E+02
   .10608883E+02   .10421899E+02   .10179856E+02   .98885866E+01   .95542153E+01
   .91830444E+01   .87814484E+01   .83557687E+01   .79122147E+01   .74567733E+01
   .69951265E+01   .65325795E+01   .60740003E+01   .56237713E+01   .51857525E+01
   .47632581E+01   .43590444E+01   .39753099E+01   .36137065E+01   .32753607E+01
   .29609037E+01   .26705096E+01   .24039396E+01   .21605917E+01   .19395534E+01
   .17396568E+01   .15595339E+01   .13976718E+01   .12524648E+01   .11222647E+01
   .10054259E+01   .90034624E+00   .80550170E+00   .71947582E+00   .64098241E+00
   .56888213E+00   .50219286E+00   .44009424E+00   .38192660E+00   .32718501E+00
   .27550900E+00   .22666863E+00   .18054776E+00   .13712524E+00   .96454853E-01
   .58644756E-01   .23837161E-01  -.78110892E-02  -.36146458E-01  -.61034673E-01
  -.82374309E-01  -.10010771E+00  -.11422904E+00  -.12478950E+00  -.13189953E+00
  -.13572834E+00  -.13650089E+00  -.13449252E+00  -.13002176E+00  -.12344150E+00
  -.11512911E+00  -.10547584E+00  -.94875945E-01  -.83715972E-01  -.72364603E-01
  -.61163343E-01  -.50418404E-01  -.40393997E-01  -.31307217E-01  -.23324629E-01
  -.16560599E-01  -.11077366E-01  -.68867658E-02  -.39534795E-02  -.21996364E-02
  -.15105491E-02  -.17413400E-02  -.27241937E-02  -.42759628E-02  -.62058544E-02
 Real Space Part
   .00000000E+00   .24072722E+00   .48097883E+00   .72025978E+00   .95803700E+00
   .11937228E+01   .14266610E+01   .16561164E+01   .18812683E+01   .21012088E+01
   .23149455E+01   .25214091E+01   .27194660E+01   .29079349E+01   .30856074E+01
   .32512724E+01   .34037421E+01   .35418803E+01   .36646309E+01   .37710464E+01
   .38603152E+01   .39317856E+01   .39849881E+01   .40196524E+01   .40357205E+01
   .40333549E+01   .40129405E+01   .39750817E+01   .39205935E+01   .38504880E+01
   .37659551E+01   .36683393E+01   .35591132E+01   .34398477E+01   .33121803E+01
   .31777827E+01   .30383282E+01   .28954595E+01   .27507591E+01   .26057217E+01
   .24617299E+01   .23200338E+01   .21817349E+01   .20477744E+01   .19189262E+01
   .17957951E+01   .16788181E+01   .15682715E+01   .14642809E+01   .13668341E+01
   .12757978E+01   .11909346E+01   .11119231E+01   .10383774E+01   .96986674E+00
   .90593479E+00   .84611755E+00   .78995950E+00   .73702771E+00   .68692356E+00
   .63929187E+00   .59382747E+00   .55027903E+00   .50845047E+00   .46819995E+00
   .42943691E+00   .39211722E+00   .35623705E+00   .32182568E+00   .28893760E+00
   .25764445E+00   .22802699E+00   .20016745E+00   .17414261E+00   .15001775E+00
   .12784161E+00   .10764267E+00   .89426479E-01   .73174350E-01   .58843142E-01
   .46366159E-01   .35654975E-01   .26602057E-01   .19083986E-01   .12965107E-01
   .81014122E-02   .43444792E-02   .15453001E-02  -.44214540E-03  -.17576930E-02
  -.25322674E-02  -.28856914E-02  -.29250656E-02  -.27437284E-02  -.24207779E-02
  -.20211175E-02  -.15959668E-02  -.11837657E-02  -.81139308E-03  -.49561207E-03
 Reciprocal Space Part
   .00000000E+00   .32430793E+00   .63324514E+00   .91180026E+00   .11456722E+01
   .13216041E+01   .14276935E+01   .14536694E+01   .13911328E+01   .12337518E+01
   .97740997E+00   .62030268E+00   .16297998E+00  -.39166412E+00  -.10384561E+01
  -.17700590E+01  -.25771361E+01  -.34485600E+01  -.43716594E+01  -.53324993E+01
  -.63161866E+01  -.73071942E+01  -.82896958E+01  -.92479035E+01  -.10166400E+02
  -.11030460E+02  -.11826345E+02  -.12541582E+02  -.13165204E+02  -.13687947E+02
  -.14102422E+02  -.14403224E+02  -.14587011E+02  -.14652526E+02  -.14600577E+02
  -.14433974E+02  -.14157420E+02  -.13777368E+02  -.13301843E+02  -.12740232E+02
  -.12103057E+02  -.11401727E+02  -.10648278E+02  -.98551157E+01  -.90347491E+01
  -.81995434E+01  -.73614790E+01  -.65319315E+01  -.57214748E+01  -.49397104E+01
  -.41951268E+01  -.34949901E+01  -.28452674E+01  -.22505841E+01  -.17142127E+01
  -.12380937E+01  -.82288554E+00  -.46804073E+00  -.17190569E+00   .68160090E-01
   .25564936E+00   .39476101E+00   .49024698E+00   .54725651E+00   .57118166E+00
   .56750818E+00   .54167510E+00   .49894616E+00   .44429578E+00   .38231148E+00
   .31711439E+00   .25229863E+00   .19089006E+00   .13532400E+00   .87441385E-01
   .48501922E-01   .19212855E-01  -.22879033E-03  -.10082627E-01  -.11002431E-01
  -.39672924E-02   .97910741E-02   .28862346E-01   .51730588E-01   .76844017E-01
   .10267963E+00   .12780099E+00   .15090791E+00   .17087698E+00   .18679230E+00
   .19796624E+00   .20395015E+00   .20453548E+00   .19974592E+00   .18982162E+00
   .17519634E+00   .15646912E+00   .13437158E+00   .10973253E+00   .83441116E-01
 Real Space Part
   .00000000E+00  -.78904849E+00  -.15719894E+01  -.23428142E+01  -.30957093E+01
  -.38251470E+01  -.45259679E+01  -.51934534E+01  -.58233861E+01  -.64120963E+01
  -.69564950E+01  -.74540909E+01  -.79029940E+01  -.83019036E+01  -.86500842E+01
  -.89473296E+01  -.91939174E+01  -.93905551E+01  -.95383217E+01  -.96386065E+01
  -.96930462E+01  -.97034652E+01  -.96718190E+01  -.96001433E+01  -.94905111E+01
  -.93449974E+01  -.91656535E+01  -.89544909E+01  -.87134738E+01  -.84445213E+01
  -.81495167E+01  -.78303232E+01  -.74888053E+01  -.71268524E+01  -.67464050E+01
  -.63494793E+01  -.59381899E+01  -.55147689E+01  -.50815787E+01  -.46411189E+01
  -.41960251E+01  -.37490599E+01  -.33030950E+01  -.28610866E+01  -.24260415E+01
  -.20009780E+01  -.15888810E+01  -.11926530E+01  -.81506341E+00  -.45869668E+00
  -.12590246E+00   .18125146E+00   .46102135E+00   .71202335E+00   .93326163E+00
   .11241479E+01   .12845116E+01   .14145998E+01   .15150685E+01   .15869622E+01
   .16316871E+01   .16509739E+01   .16468349E+01   .16215155E+01   .15774405E+01
   .15171597E+01   .14432907E+01   .13584638E+01   .12652685E+01   .11662039E+01
   .10636341E+01   .95974919E+00   .85653311E+00   .75573905E+00   .65887192E+00
   .56717859E+00   .48164549E+00   .40300296E+00   .33173602E+00   .26810042E+00
   .21214338E+00   .16372783E+00   .12255909E+00   .88213159E-01   .60165356E-01
   .37818560E-01   .20530124E-01   .76367919E-02  -.15230002E-02  -.75898408E-02
  -.11167383E-01  -.12809841E-01  -.13012936E-01  -.12208186E-01  -.10760282E-01
  -.89672503E-02  -.70629980E-02  -.52218153E-02  -.35643756E-02  -.21647760E-02
 Non local Part
 2 2 2.40697587174278071
 19.4067641056788283 -10.7760184394999836 -10.7760184394999836 5.92459770642208028
 Reciprocal Space Part
   .00000000E+00   .41196773E-01   .16403536E+00   .36627475E+00   .64422683E+00
   .99282581E+00   .14057234E+01   .18754077E+01   .23933439E+01   .29501329E+01
   .35356864E+01   .41394123E+01   .47504100E+01   .53576689E+01   .59502675E+01
   .65175693E+01   .70494110E+01   .75362805E+01   .79694795E+01   .83412705E+01
   .86450022E+01   .88752144E+01   .90277177E+01   .90996498E+01   .90895046E+01
   .89971370E+01   .88237409E+01   .85718041E+01   .82450389E+01   .78482924E+01
   .73874370E+01   .68692449E+01   .63012487E+01   .56915917E+01   .50488704E+01
   .43819737E+01   .36999201E+01   .30116985E+01   .23261140E+01   .16516418E+01
   .99629227E+00   .36748987E+00  -.22803362E+00  -.78432832E+00  -.12962977E+01
  -.17597512E+01  -.21714376E+01  -.25290592E+01  -.28312678E+01  -.30776423E+01
  -.32686503E+01  -.34055936E+01  -.34905418E+01  -.35262530E+01  -.35160860E+01
  -.34639057E+01  -.33739828E+01  -.32508921E+01  -.30994099E+01  -.29244136E+01
  -.27307851E+01  -.25233201E+01  -.23066447E+01  -.20851407E+01  -.18628805E+01
  -.16435734E+01  -.14305218E+01  -.12265901E+01  -.10341844E+01  -.85524321E+00
  -.69123922E+00  -.54319067E+00  -.41168185E+00  -.29689141E+00  -.19862752E+00
  -.11636833E+00  -.49306680E-01   .36025156E-02   .43593392E-01   .72040090E-01
   .90408736E-01   .10021154E+00   .10296393E+00   .10014569E+00   .93166488E-01
   .83336661E-01   .71843278E-01   .59731847E-01   .47893609E-01   .37058311E-01
   .27792174E-01   .20500692E-01   .15435758E-01   .12706555E-01   .12293577E-01
   .14065119E-01   .17795543E-01   .23184632E-01   .29877373E-01   .37483538E-01
 Real Space Part
   .00000000E+00  -.12396153E-01  -.49358612E-01  -.11021258E+00  -.19384405E+00
  -.29871567E+00  -.42288894E+00  -.56405239E+00  -.71955574E+00  -.88644965E+00
  -.10615307E+01  -.12413915E+01  -.14224746E+01  -.16011304E+01  -.17736782E+01
  -.19364688E+01  -.20859483E+01  -.22187221E+01  -.23316176E+01  -.24217446E+01
  -.24865518E+01  -.25238790E+01  -.25320026E+01  -.25096743E+01  -.24561515E+01
  -.23712182E+01  -.22551965E+01  -.21089471E+01  -.19338596E+01  -.17318316E+01
  -.15052374E+01  -.12568867E+01  -.98997383E+00  -.70801863E+00  -.41480049E+00
  -.11428650E+00   .18944442E+00   .49227952E+00   .79015089E+00   .10791127E+01
   .13554151E+01   .16155738E+01   .18564320E+01   .20752159E+01   .22695793E+01
   .24376398E+01   .25780025E+01   .26897738E+01   .27725630E+01   .28264734E+01
   .28520821E+01   .28504108E+01   .28228868E+01   .27712976E+01   .26977383E+01
   .26045551E+01   .24942851E+01   .23695956E+01   .22332225E+01   .20879117E+01
   .19363623E+01   .17811755E+01   .16248080E+01   .14695325E+01   .13174047E+01
   .11702382E+01   .10295866E+01   .89673344E+00   .77268923E+00   .65819560E+00
   .55373539E+00   .45954834E+00   .37565127E+00   .30186200E+00   .23782582E+00
   .18304372E+00   .13690130E+00   .98697597E-01   .67672835E-01   .43034606E-01
   .23981731E-01   .97254210E-02  -.49261461E-03  -.73853101E-02  -.11608703E-01
  -.13753668E-01  -.14340778E-01  -.13818056E-01  -.12561297E-01  -.10876625E-01
  -.90048552E-02  -.71272883E-02  -.53724911E-02  -.38236969E-02  -.25264483E-02
  -.14961630E-02  -.72534684E-03  -.19023043E-03   .14333596E-03   .31484274E-03
 Reciprocal Space Part
   .00000000E+00   .77178132E-01   .30703397E+00   .68455545E+00   .12014678E+01
   .18463507E+01   .26048019E+01   .34596449E+01   .43911801E+01   .53774772E+01
   .63947061E+01   .74175039E+01   .84193728E+01   .93731071E+01   .10251242E+02
   .11026519E+02   .11672365E+02   .12163370E+02   .12475769E+02   .12587903E+02
   .12480671E+02   .12137943E+02   .11546948E+02   .10698604E+02   .95878095E+01
   .82136626E+01   .65796200E+01   .46935806E+01   .25678932E+01   .21928273E+00
  -.23313050E+01  -.50589406E+01  -.79350294E+01  -.10927706E+02  -.14002300E+02
  -.17121869E+02  -.20247785E+02  -.23340364E+02  -.26359538E+02  -.29265540E+02
  -.32019600E+02  -.34584638E+02  -.36925929E+02  -.39011741E+02  -.40813920E+02
  -.42308413E+02  -.43475719E+02  -.44301258E+02  -.44775643E+02  -.44894855E+02
  -.44660314E+02  -.44078842E+02  -.43162524E+02  -.41928459E+02  -.40398421E+02
  -.38598418E+02  -.36558179E+02  -.34310568E+02  -.31890933E+02  -.29336423E+02
  -.26685271E+02  -.23976065E+02  -.21247024E+02  -.18535296E+02  -.15876292E+02
  -.13303062E+02  -.10845748E+02  -.85310979E+01  -.63820731E+01  -.44175424E+01
  -.26520740E+01  -.10958267E+01   .24546014E+00   .13703793E+01   .22816764E+01
   .29859845E+01   .34934821E+01   .38174852E+01   .39739840E+01   .39811386E+01
   .38587468E+01   .36276981E+01   .33094270E+01   .29253809E+01   .24965134E+01
   .20428167E+01   .15829011E+01   .11336323E+01   .70983268E+00   .32405112E+00
  -.13595239E-01  -.29550641E+00  -.51661345E+00  -.67432369E+00  -.76840214E+00
  -.80079544E+00  -.77540588E+00  -.69782446E+00  -.57503239E+00  -.41508105E+00
 Real Space Part
   .00000000E+00  -.14693576E+00  -.58610070E+00  -.13125678E+01  -.23181259E+01
  -.35912853E+01  -.51172911E+01  -.68781533E+01  -.88527009E+01  -.11016667E+02
  -.13342815E+02  -.15801116E+02  -.18358981E+02  -.20981554E+02  -.23632075E+02
  -.26272308E+02  -.28863034E+02  -.31364608E+02  -.33737569E+02  -.35943293E+02
  -.37944677E+02  -.39706837E+02  -.41197805E+02  -.42389206E+02  -.43256885E+02
  -.43781489E+02  -.43948952E+02  -.43750898E+02  -.43184923E+02  -.42254757E+02
  -.40970287E+02  -.39347451E+02  -.37407983E+02  -.35179027E+02  -.32692617E+02
  -.29985043E+02  -.27096114E+02  -.24068332E+02  -.20946006E+02  -.17774331E+02
  -.14598440E+02  -.11462477E+02  -.84086956E+01  -.54766245E+01  -.27023041E+01
  -.11762827E+00   .22502013E+01   .43790929E+01   .62523464E+01   .78587956E+01
   .91928097E+01   .10254160E+02   .11047759E+02   .11583282E+02   .11874692E+02
   .11939676E+02   .11799020E+02   .11475940E+02   .10995387E+02   .10383355E+02
   .96661996E+01   .88699949E+01   .80199445E+01   .71398535E+01   .62516789E+01
   .53751638E+01   .45275606E+01   .37234441E+01   .29746150E+01   .22900880E+01
   .16761585E+01   .11365406E+01   .67256392E+00   .28342013E+00  -.33554437E-01
  -.28257144E+00  -.46907101E+00  -.59940131E+00  -.68050758E+00  -.71963994E+00
  -.72408757E+00  -.70094525E+00  -.65691653E+00  -.59815613E+00  -.53015238E+00
  -.45764900E+00  -.38460422E+00  -.31418399E+00  -.24878514E+00  -.19008357E+00
  -.13910250E+00  -.96295091E-01  -.61636342E-01  -.34719167E-01  -.14850104E-01
  -.11406882E-02   .74087511E-02   .11835381E-01   .13151957E-01   .12297678E-01
 PAW radial sets
 339 1.74313399126372026
(5E20.12)                                
 augmentation charges (non sperical)
  -.664085890893E-01   .273919372073E-02  -.588660677818E-01  -.999091224306E-02  -.762433293240E-01
   .256109803618E-01   .273919372073E-02  -.519780624560E-04   .170918287606E-02  -.262464670379E-02
  -.270447478443E-01   .112533187436E-01  -.588660677818E-01   .170918287606E-02  -.431161007427E-01
  -.489481848371E-02  -.161695478127E+00   .633321667788E-01  -.999091224306E-02  -.262464670379E-02
  -.489481848371E-02   .603280143329E-02  -.793892747800E-01   .301615005987E-01  -.762433293240E-01
  -.270447478443E-01  -.161695478127E+00  -.793892747800E-01   .523072374087E+00  -.262915867358E+00
   .256109803618E-01   .112533187436E-01   .633321667788E-01   .301615005987E-01  -.262915867358E+00
   .128823579561E+00
 uccopancies in atom
   .199900000332E+01   .000000000000E+00   .000000000000E+00   .000000000000E+00   .000000000000E+00
   .000000000000E+00   .000000000000E+00   .000000000000E+00   .000000000000E+00   .000000000000E+00
   .000000000000E+00   .000000000000E+00   .000000000000E+00   .000000000000E+00   .000000000000E+00
   .000000000000E+00   .000000000000E+00   .000000000000E+00   .000000000000E+00   .000000000000E+00
   .000000000000E+00   .000000000000E+00   .000000000000E+00   .000000000000E+00   .000000000000E+00
   .000000000000E+00   .000000000000E+00   .000000000000E+00   .200000001354E-03   .000000000000E+00
   .000000000000E+00   .000000000000E+00   .000000000000E+00   .000000000000E+00   .000000000000E+00
   .000000000000E+00
 grid
   .397732746479E-04   .410666023172E-04   .424019857759E-04   .437807925734E-04   .452044347281E-04
   .466743701742E-04   .481921042540E-04   .497591912597E-04   .513772360255E-04   .530478955705E-04
   .547728807961E-04   .565539582380E-04   .583929518750E-04   .602917449974E-04   .622522821352E-04
   .642765710498E-04   .663666847899E-04   .685247638147E-04   .707530181855E-04   .730537298297E-04
   .754292548770E-04   .778820260727E-04   .804145552686E-04   .830294359962E-04   .857293461217E-04
   .885170505890E-04   .913954042511E-04   .943673547937E-04   .974359457539E-04   .100604319637E-03
   .103875721134E-03   .107253500447E-03   .110741116717E-03   .114342141568E-03   .118060262763E-03
   .121899287983E-03   .125863148727E-03   .129955904333E-03   .134181746142E-03   .138545001784E-03
   .143050139615E-03   .147701773288E-03   .152504666485E-03   .157463737786E-03   .162584065715E-03
   .167870893935E-03   .173329636619E-03   .178965883997E-03   .184785408079E-03   .190794168567E-03
   .196998318955E-03   .203404212837E-03   .210018410407E-03   .216847685182E-03   .223899030935E-03
   .231179668861E-03   .238697054970E-03   .246458887721E-03   .254473115910E-03   .262747946807E-03
   .271291854561E-03   .280113588881E-03   .289222183993E-03   .298626967896E-03   .308337571908E-03
   .318363940539E-03   .328716341664E-03   .339405377048E-03   .350441993197E-03   .361837492570E-03
   .373603545154E-03   .385752200415E-03   .398295899639E-03   .411247488668E-03   .424620231063E-03
   .438427821679E-03   .452684400697E-03   .467404568098E-03   .482603398620E-03   .498296457195E-03
   .514499814886E-03   .531230065346E-03   .548504341814E-03   .566340334659E-03   .584756309495E-03
   .603771125892E-03   .623404256681E-03   .643675807905E-03   .664606539403E-03   .686217886074E-03
   .708531979825E-03   .731571672238E-03   .755360557971E-03   .779922998922E-03   .805284149177E-03
   .831469980770E-03   .858507310281E-03   .886423826297E-03   .915248117771E-03   .945009703296E-03
   .975739061337E-03   .100746766144E-02   .104022799647E-02   .107405361586E-02   .110897916001E-02
   .114504039573E-02   .118227425287E-02   .122071886216E-02   .126041359424E-02   .130139909998E-02
   .134371735211E-02   .138741168824E-02   .143252685517E-02   .147910905479E-02   .152720599132E-02
   .157686692025E-02   .162814269869E-02   .168108583753E-02   .173575055517E-02   .179219283306E-02
   .185047047302E-02   .191064315644E-02   .197277250542E-02   .203692214583E-02   .210315777251E-02
   .217154721653E-02   .224216051467E-02   .231506998110E-02   .239035028149E-02   .246807850945E-02
   .254833426547E-02   .263119973847E-02   .271675978993E-02   .280510204081E-02   .289631696130E-02
   .299049796346E-02   .308774149685E-02   .318814714735E-02   .329181773913E-02   .339885943992E-02
   .350938186979E-02   .362349821336E-02   .374132533574E-02   .386298390219E-02   .398859850172E-02
   .411829777466E-02   .425221454440E-02   .439048595341E-02   .453325360369E-02   .468066370180E-02
   .483286720855E-02   .499001999364E-02   .515228299526E-02   .531982238489E-02   .549280973751E-02
   .567142220729E-02   .585584270901E-02   .604626010536E-02   .624286940041E-02   .644587193926E-02
   .665547561424E-02   .687189507784E-02   .709535196249E-02   .732607510757E-02   .756430079374E-02
   .781027298494E-02   .806424357816E-02   .832647266149E-02   .859722878043E-02   .887678921291E-02
   .916544025324E-02   .946347750529E-02   .977120618528E-02   .100889414342E-01   .104170086409E-01
   .107557437746E-01   .111054937298E-01   .114666166811E-01   .118394824499E-01   .122244728833E-01
   .126219822451E-01   .130324176197E-01   .134561993288E-01   .138937613619E-01   .143455518206E-01
   .148120333781E-01   .152936837520E-01   .157909961946E-01   .163044799971E-01   .168346610119E-01
   .173820821907E-01   .179473041405E-01   .185309056981E-01   .191334845225E-01   .197556577069E-01
   .203980624112E-01   .210613565139E-01   .217462192861E-01   .224533520871E-01   .231834790827E-01
   .239373479867E-01   .247157308269E-01   .255194247352E-01   .263492527644E-01   .272060647309E-01
   .280907380852E-01   .290041788099E-01   .299473223482E-01   .309211345615E-01   .319266127187E-01
   .329647865171E-01   .340367191376E-01   .351435083327E-01   .362862875513E-01   .374662270993E-01
   .386845353378E-01   .399424599208E-01   .412412890732E-01   .425823529094E-01   .439670247961E-01
   .453967227581E-01   .468729109313E-01   .483971010611E-01   .499708540516E-01   .515957815634E-01
   .532735476641E-01   .550058705329E-01   .567945242197E-01   .586413404623E-01   .605482105619E-01
   .625170873201E-01   .645499870387E-01   .666489915846E-01   .688162505221E-01   .710539833135E-01
   .733644815929E-01   .757501115123E-01   .782133161652E-01   .807566180886E-01   .833826218457E-01
   .860940166939E-01   .888935793385E-01   .917841767762E-01   .947687692315E-01   .978504131877E-01
   .101032264518E+00   .104317581715E+00   .107709729232E+00   .111212180924E+00   .114828523607E+00
   .118562460732E+00   .122417816178E+00   .126398538165E+00   .130508703301E+00   .134752520753E+00
   .139134336561E+00   .143658638088E+00   .148330058614E+00   .153153382082E+00   .158133547997E+00
   .163275656483E+00   .168584973508E+00   .174066936279E+00   .179727158803E+00   .185571437643E+00
   .191605757851E+00   .197836299098E+00   .204269442003E+00   .210911774667E+00   .217770099419E+00
   .224851439782E+00   .232163047668E+00   .239712410802E+00   .247507260392E+00   .255555579045E+00
   .263865608943E+00   .272445860281E+00   .281305119988E+00   .290452460720E+00   .299897250152E+00
   .309649160575E+00   .319718178797E+00   .330114616372E+00   .340849120161E+00   .351932683234E+00
   .363376656128E+00   .375192758472E+00   .387393090986E+00   .399990147877E+00   .412996829633E+00
   .426426456231E+00   .440292780784E+00   .454610003619E+00   .469392786823E+00   .484656269259E+00
   .500416082066E+00   .516688364669E+00   .533489781309E+00   .550837538102E+00   .568749400670E+00
   .587243712324E+00   .606339412854E+00   .626056057929E+00   .646413839114E+00   .667433604556E+00
   .689136880333E+00   .711545892495E+00   .734683589829E+00   .758573667359E+00   .783240590612E+00
   .808709620672E+00   .835006840053E+00   .862159179404E+00   .890194445094E+00   .919141347685E+00
   .949029531335E+00   .979889604155E+00   .101175316956E+01   .104465285861E+01   .107862236349E+01
   .111369647191E+01   .114991110285E+01   .118730334323E+01   .122591148600E+01   .126577506925E+01
   .130693491678E+01   .134943317987E+01   .139331338045E+01   .143862045569E+01   .148540080399E+01
   .153370233252E+01   .158357450625E+01   .163506839866E+01   .168823674398E+01   .174313399126E+01
   .179981636007E+01   .185834189811E+01   .191877054064E+01   .198116417187E+01
 aepotential
   .186240265913E+05   .186680265063E+05   .186787189127E+05   .186559101591E+05   .185997289288E+05
   .185105830170E+05   .183890661217E+05   .182360676049E+05   .180526685889E+05   .178401853343E+05
   .176001008981E+05   .173341015501E+05   .170439914212E+05   .167317113401E+05   .163993287521E+05
   .160489181418E+05   .156826397075E+05   .153027124485E+05   .149112652293E+05   .145104474600E+05
   .141023766357E+05   .136890452211E+05   .132724108639E+05   .128542973745E+05   .124364365665E+05
   .120204256682E+05   .116077377036E+05   .111997087297E+05   .107975479779E+05   .104023196479E+05
   .100149595151E+05   .963627316980E+04   .926693924571E+04   .890751884451E+04   .855845995846E+04
   .822010646730E+04   .789270562624E+04   .757641647759E+04   .727131838776E+04   .697741934177E+04
   .669466415723E+04   .642294237475E+04   .616209578053E+04   .591192546975E+04   .567219845846E+04
   .544265376905E+04   .522300792586E+04   .501296004522E+04   .481219621671E+04   .462039379415E+04
   .443722434396E+04   .426235717335E+04   .409546251788E+04   .393621136605E+04   .378428076098E+04
   .363935338065E+04   .350111825017E+04   .336927397876E+04   .324352515413E+04   .312359100854E+04
   .300919618698E+04   .290007740909E+04   .279598228900E+04   .269666784259E+04   .260190214792E+04
   .251146365520E+04   .242514012294E+04   .234272990412E+04   .226404095131E+04   .218888929124E+04
   .211710210722E+04   .204851311242E+04   .198296534857E+04   .192030956392E+04   .186040409492E+04
   .180311456384E+04   .174831358318E+04   .169587999432E+04   .164569929937E+04   .159766251242E+04
   .155166678556E+04   .150761415515E+04   .146541203077E+04   .142497238529E+04   .138621190407E+04
   .134905152615E+04   .131341617901E+04   .127923474078E+04   .124643971000E+04   .121496677756E+04
   .118475556858E+04   .115574789653E+04   .112788908101E+04   .110112701911E+04   .107541231089E+04
   .105069751569E+04   .102693843177E+04   .100409219902E+04   .982118490243E+03   .960978745121E+03
   .940636436026E+03   .921056633836E+03   .902206203531E+03   .884053421838E+03   .866568269368E+03
   .849721895313E+03   .833487062643E+03   .817837549751E+03   .802748471062E+03   .788196044616E+03
   .774157563772E+03   .760611349948E+03   .747536669841E+03   .734913740014E+03   .722723627421E+03
   .710948197949E+03   .699570182177E+03   .688572946140E+03   .677940649750E+03   .667658068539E+03
   .657710630316E+03   .648084376233E+03   .638765893864E+03   .629742337064E+03   .621001364896E+03
   .612531127352E+03   .604320250949E+03   .596357767060E+03   .588633196823E+03   .581136381084E+03
   .573857600633E+03   .566787459117E+03   .559916932436E+03   .553237292582E+03   .546740141683E+03
   .540417372799E+03   .534261149488E+03   .528263901324E+03   .522418326281E+03   .516717340710E+03
   .511154105924E+03   .505721980894E+03   .500414551432E+03   .495225581474E+03   .490149025205E+03
   .485179018353E+03   .480309856161E+03   .475535994518E+03   .470852041666E+03   .466252746208E+03
   .461732995947E+03   .457287802185E+03   .452912305941E+03   .448601754903E+03   .444351516635E+03
   .440157056276E+03   .436013943419E+03   .431917839893E+03   .427864500161E+03   .423849763405E+03
   .419869551615E+03   .415919866726E+03   .411996785758E+03   .408096458290E+03   .404215105676E+03
   .400349016195E+03   .396494545222E+03   .392648113142E+03   .388806203774E+03   .384965364094E+03
   .381122204282E+03   .377273396329E+03   .373415676385E+03   .369545845283E+03   .365660766935E+03
   .361757375379E+03   .357832673538E+03   .353883737499E+03   .349907718495E+03   .345901850271E+03
   .341863448538E+03   .337789923811E+03   .333678780551E+03   .329527627427E+03   .325334186069E+03
   .321096296673E+03   .316811931838E+03   .312479202505E+03   .308096373728E+03   .303661876520E+03
   .299174321145E+03   .294632514974E+03   .290035478334E+03   .285382464512E+03   .280672980619E+03
   .275906809750E+03   .271084037391E+03   .266205077461E+03   .261270702119E+03   .256282073657E+03
   .251240778512E+03   .246148862849E+03   .241008870494E+03   .235823881490E+03   .230597550668E+03
   .225334145044E+03   .220038577423E+03   .214716434792E+03   .209373996325E+03   .204018238296E+03
   .198656818871E+03   .193298037659E+03   .187950761534E+03   .182624310228E+03   .177328293395E+03
   .172072394950E+03   .166866102845E+03   .161718391091E+03   .156637372412E+03   .151629957528E+03
   .146701581725E+03   .141856089707E+03   .137095903320E+03   .132422623550E+03   .127838223947E+03
   .123346945446E+03   .118957871171E+03   .114687939354E+03   .110564780385E+03   .106628460370E+03
   .102930991152E+03   .995326745818E+02   .964950417476E+02   .938712226749E+02   .916956222831E+02
   .899753043185E+02   .886853081454E+02   .877693943309E+02   .871466533468E+02   .867229803564E+02
   .864046955704E+02   .861104443590E+02   .857780814433E+02   .853655510072E+02   .848473558462E+02
   .842093411973E+02   .834440618187E+02   .825477291262E+02   .815186739993E+02   .803567762776E+02
   .790633258340E+02   .776409388170E+02   .760934101845E+02   .744254828489E+02   .726425886864E+02
   .707506076638E+02   .687556874039E+02   .666641264292E+02   .644823294743E+02   .622168211751E+02
   .598743174835E+02   .574618442199E+02   .549869034691E+02   .524576899567E+02   .498833551241E+02
   .472743138902E+02   .446425803696E+02   .420020900455E+02   .393689373495E+02   .367614099068E+02
   .341996464743E+02   .317047023361E+02   .292967864729E+02   .269924780369E+02   .248008754491E+02
   .227189681330E+02   .207272530918E+02   .187882295776E+02   .168532631678E+02   .148864767880E+02
   .129112711292E+02   .110646473839E+02   .960680967060E+01   .882231198495E+01   .882378509615E+01
   .940978774413E+01   .101690807714E+02   .107695067347E+02   .111115229337E+02   .112487601318E+02
   .112624785070E+02   .112058406215E+02   .111002079317E+02   .109466824753E+02   .107375179951E+02
   .104639835234E+02   .101205062938E+02   .970587331558E+01   .922267176406E+01   .867605361639E+01
   .807252542641E+01   .741905422183E+01   .672253553054E+01   .598953901394E+01   .522624703645E+01
   .443850337135E+01   .363192407421E+01   .281306771797E+01   .198812074043E+01   .116101942861E+01
   .337863901005E+00  -.474776334576E+00  -.126990284576E+01  -.204021754440E+01  -.277842216276E+01
  -.347769235024E+01  -.413228369866E+01  -.473819935927E+01  -.529379361267E+01  -.580023401032E+01
  -.626169411771E+01  -.668513452890E+01  -.707929358548E+01  -.745214118384E+01  -.780593375394E+01
  -.813035336271E+01  -.839829884017E+01  -.857325163185E+01  -.863168244889E+01  -.858402172633E+01
  -.846986870786E+01  -.833173440610E+01  -.819564456755E+01  -.807036385123E+01  -.795538118754E+01
  -.784762987668E+01  -.774459727780E+01  -.764509740492E+01  -.754911391638E+01
 core charge-density
   .231633479218E-03   .246748593227E-03   .262849191926E-03   .279999441736E-03   .298267678596E-03
   .317726678069E-03   .338453942872E-03   .360532008918E-03   .384048771093E-03   .409097829998E-03
   .435778861009E-03   .464198007072E-03   .494468296767E-03   .526710089207E-03   .561051547528E-03
   .597629142765E-03   .636588190034E-03   .678083419086E-03   .722279581428E-03   .769352096279E-03
   .819487737849E-03   .872885366592E-03   .929756707092E-03   .990327175674E-03   .105483676073E-02
   .112354095919E-02   .119671177256E-02   .127463876638E-02   .135763019695E-02   .144601420962E-02
   .154014011309E-02   .164037973444E-02   .174712885992E-02   .186080876686E-02   .198186785229E-02
   .211078336437E-02   .224806324281E-02   .239424807516E-02   .254991317607E-02   .271567079695E-02
   .289217247423E-02   .308011152447E-02   .328022569548E-02   .349329998279E-02   .372016962157E-02
   .396172326463E-02   .421890635770E-02   .449272472383E-02   .478424836960E-02   .509461552618E-02
   .542503693946E-02   .577680042387E-02   .615127569561E-02   .654991950176E-02   .697428106253E-02
   .742600784518E-02   .790685168868E-02   .841867529976E-02   .896345914132E-02   .954330873647E-02
   .101604624111E-01   .108172995004E-01   .115163490462E-01   .122602990106E-01   .130520060376E-01
   .138945057910E-01   .147910239012E-01   .157449875540E-01   .167600377567E-01   .178400423173E-01
   .189891095758E-01   .202116029270E-01   .215121561760E-01   .228956897707E-01   .243674279559E-01
   .259329168955E-01   .275980438126E-01   .293690571970E-01   .312525881341E-01   .332556728074E-01
   .353857762320E-01   .376508172772E-01   .400591950362E-01   .426198166055E-01   .453421263358E-01
   .482361366188E-01   .513124602744E-01   .545823446061E-01   .580577071907E-01   .617511734700E-01
   .656761162148E-01   .698466969258E-01   .742779092440E-01   .789856244331E-01   .839866390046E-01
   .892987245446E-01   .949406798105E-01   .100932385149E+00   .107294859298E+00   .114050318614E+00
   .121222238780E+00   .128835419020E+00   .136916048860E+00   .145491777452E+00   .154591785463E+00
   .164246859547E+00   .174489469363E+00   .185353847112E+00   .196876069554E+00   .209094142419E+00
   .222048087127E+00   .235780029700E+00   .250334291713E+00   .265757483106E+00   .282098596655E+00
   .299409103830E+00   .317743051768E+00   .337157161003E+00   .357710923573E+00   .379466701055E+00
   .402489822010E+00   .426848678283E+00   .452614819500E+00   .479863045040E+00   .508671492683E+00
   .539121723040E+00   .571298798764E+00   .605291357454E+00   .641191677058E+00   .679095732433E+00
   .719103241641E+00   .761317700386E+00   .805846402910E+00   .852800447443E+00   .902294724267E+00
   .954447884171E+00   .100938228501E+01   .106722391389E+01   .112810228228E+01   .119215029123E+01
   .125950406382E+01   .133030274143E+01   .140468824076E+01   .148280496789E+01   .156479948592E+01
   .165082013223E+01   .174101658159E+01   .183553935101E+01   .193453924231E+01   .203816671814E+01
   .214657120750E+01   .225990033633E+01   .237829907938E+01   .250190882924E+01   .263086637890E+01
   .276530281431E+01   .290534231377E+01   .305110085164E+01   .320268480401E+01   .336018945506E+01
   .352369740323E+01   .369327686762E+01   .386897989571E+01   .405084047513E+01   .423887255316E+01
   .443306796970E+01   .463339431075E+01   .483979269165E+01   .505217548154E+01   .527042398263E+01
   .549438608052E+01   .572387388476E+01   .595866138142E+01   .619848212290E+01   .644302698320E+01
   .669194201064E+01   .694482641303E+01   .720123071436E+01   .746065512525E+01   .772254817324E+01
   .798630564198E+01   .825126987216E+01   .851672947907E+01   .878191954500E+01   .904602234614E+01
   .930816867478E+01   .956743981884E+01   .982287025926E+01   .100734511453E+02   .103181346044E+02
   .105558389385E+02   .107854547547E+02   .110058520684E+02   .112158884090E+02   .114144179465E+02
   .116003016426E+02   .117724184166E+02   .119296772956E+02   .120710304984E+02   .121954873833E+02
   .123021291597E+02   .123901242424E+02   .124587440953E+02   .125073793854E+02   .125355562339E+02
   .125429523263E+02   .125294126077E+02   .124949642677E+02   .124398306873E+02   .123644440028E+02
   .122694559185E+02   .121557463911E+02   .120244298001E+02   .118768582205E+02   .117146214245E+02
   .115395432612E+02   .113536740910E+02   .111592789993E+02   .109588215656E+02   .107549430338E+02
   .105504368088E+02   .103482182934E+02   .101512901828E+02   .996270343843E+01   .978551427821E+01
   .962273763211E+01   .947729762206E+01   .935197575214E+01   .924935754415E+01   .917177850081E+01
   .912127033569E+01   .909950849259E+01   .910776206861E+01   .914684734000E+01   .921708616977E+01
   .931827063632E+01   .944963524653E+01   .960983806610E+01   .979695199452E+01   .100084672174E+02
   .102413055717E+02   .104918472026E+02   .107559695378E+02   .110290983123E+02   .113062701774E+02
   .115822062439E+02   .118513957197E+02   .121081885458E+02   .123468956318E+02   .125618949794E+02
   .127477417056E+02   .128992797113E+02   .130117525877E+02   .130809112169E+02   .131031154710E+02
   .130754274235E+02   .129956935531E+02   .128626135372E+02   .126757934301E+02   .124357812604E+02
   .121440833982E+02   .118031603977E+02   .114164014520E+02   .109880770675E+02   .105232700832E+02
   .100277857218E+02   .950804195780E+01   .897094209829E+01   .842373210754E+01   .787384583141E+01
   .732874187674E+01   .679573645393E+01   .628183694640E+01   .579358129266E+01   .533688839841E+01
   .491692472222E+01   .453799178693E+01   .420343873744E+01   .391560296447E+01   .367578007454E+01
   .348422101946E+01   .334015033180E+01   .324179566449E+01   .318642169006E+01   .317037443073E+01
   .318916015464E+01   .323758602813E+01   .330995916646E+01   .340030101300E+01   .350253620241E+01
   .361065031105E+01   .371883001986E+01   .382159467951E+01   .391391963993E+01   .399134756125E+01
   .405008290120E+01   .408706503432E+01   .410001649301E+01   .408746441438E+01   .404873505234E+01
   .398392283797E+01   .389383671279E+01   .377992733626E+01   .364419925831E+01   .348911239032E+01
   .331747708060E+01   .313234691604E+01   .293691300904E+01   .273440222851E+01   .252798389668E+01
   .232068790403E+01   .211533345406E+01   .191447058615E+01   .172033542723E+01   .153481955628E+01
   .135945339660E+01   .119540314536E+01   .104348022386E+01   .904161823377E+00   .777620456668E+00
   .663760264798E+00   .562257477477E+00   .472602461065E+00   .394140904067E+00   .326111926696E+00
   .267681361741E+00   .217969480999E+00   .176074297095E+00   .141093483827E+00   .112147639783E+00
   .884038171865E-01   .690944529009E-01   .535278589610E-01   .410907700713E-01   .312460221224E-01
   .235280387510E-01   .175374692322E-01   .129354551083E-01   .943769552469E-02
 pspotential
  -.265389434267E+01  -.265412620932E+01  -.265435077372E+01  -.265456826588E+01  -.265477890859E+01
  -.265498291750E+01  -.265518050172E+01  -.265537186324E+01  -.265555719825E+01  -.265573669648E+01
  -.265591054163E+01  -.265607891195E+01  -.265624197976E+01  -.265639991212E+01  -.265655287077E+01
  -.265670101245E+01  -.265684448854E+01  -.265698344637E+01  -.265711802795E+01  -.265724837122E+01
  -.265737460970E+01  -.265749687265E+01  -.265761528523E+01  -.265772996887E+01  -.265784104082E+01
  -.265794861489E+01  -.265805280138E+01  -.265815370676E+01  -.265825143460E+01  -.265834608493E+01
  -.265843775457E+01  -.265852653755E+01  -.265861252471E+01  -.265869580426E+01  -.265877646134E+01
  -.265885457862E+01  -.265893023602E+01  -.265900351115E+01  -.265907447900E+01  -.265914321240E+01
  -.265920978157E+01  -.265927425478E+01  -.265933669810E+01  -.265939717546E+01  -.265945574881E+01
  -.265951247819E+01  -.265956742168E+01  -.265962063556E+01  -.265967217439E+01  -.265972209096E+01
  -.265977043641E+01  -.265981726035E+01  -.265986261065E+01  -.265990653384E+01  -.265994907498E+01
  -.265999027764E+01  -.266003018404E+01  -.266006883510E+01  -.266010627046E+01  -.266014252857E+01
  -.266017764654E+01  -.266021166039E+01  -.266024460507E+01  -.266027651436E+01  -.266030742098E+01
  -.266033735672E+01  -.266036635228E+01  -.266039443745E+01  -.266042164111E+01  -.266044799115E+01
  -.266047351471E+01  -.266049823803E+01  -.266052218655E+01  -.266054538492E+01  -.266056785704E+01
  -.266058962607E+01  -.266061071445E+01  -.266063114397E+01  -.266065093570E+01  -.266067011010E+01
  -.266068868702E+01  -.266070668568E+01  -.266072412475E+01  -.266074102234E+01  -.266075739600E+01
  -.266077326279E+01  -.266078863925E+01  -.266080354145E+01  -.266081798497E+01  -.266083198495E+01
  -.266084555613E+01  -.266085871280E+01  -.266087146887E+01  -.266088383787E+01  -.266089583296E+01
  -.266090746695E+01  -.266091875230E+01  -.266092970117E+01  -.266094032542E+01  -.266095063660E+01
  -.266096064599E+01  -.266097036461E+01  -.266097980324E+01  -.266098897242E+01  -.266099788246E+01
  -.266100654350E+01  -.266101496546E+01  -.266102315810E+01  -.266103113101E+01  -.266103889364E+01
  -.266104645532E+01  -.266105382524E+01  -.266106101252E+01  -.266106802617E+01  -.266107487515E+01
  -.266108156836E+01  -.266108811467E+01  -.266109452291E+01  -.266110080195E+01  -.266110696066E+01
  -.266111300793E+01  -.266111895273E+01  -.266112480410E+01  -.266113057120E+01  -.266113626326E+01
  -.266114188972E+01  -.266114746013E+01  -.266115298429E+01  -.266115847217E+01  -.266116393403E+01
  -.266116938038E+01  -.266117482207E+01  -.266118027025E+01  -.266118573650E+01  -.266119123276E+01
  -.266119677145E+01  -.266120236550E+01  -.266120802833E+01  -.266121377397E+01  -.266121961707E+01
  -.266122557297E+01  -.266123165773E+01  -.266123788821E+01  -.266124428210E+01  -.266125085804E+01
  -.266125763563E+01  -.266126463553E+01  -.266127187955E+01  -.266127939069E+01  -.266128719329E+01
  -.266129531304E+01  -.266130377718E+01  -.266131261452E+01  -.266132185557E+01  -.266133153271E+01
  -.266134168026E+01  -.266135233463E+01  -.266136353448E+01  -.266137532085E+01  -.266138773735E+01
  -.266140083031E+01  -.266141464898E+01  -.266142924571E+01  -.266144467618E+01  -.266146099963E+01
  -.266147827904E+01  -.266149658147E+01  -.266151597828E+01  -.266153654542E+01  -.266155836374E+01
  -.266158151933E+01  -.266160610386E+01  -.266163221496E+01  -.266165995660E+01  -.266168943952E+01
  -.266172078170E+01  -.266175410880E+01  -.266178955472E+01  -.266182726210E+01  -.266186738293E+01
  -.266191007916E+01  -.266195552336E+01  -.266200389943E+01  -.266205540334E+01  -.266211024394E+01
  -.266216864380E+01  -.266223084014E+01  -.266229708577E+01  -.266236765013E+01  -.266244282042E+01
  -.266252290273E+01  -.266260822332E+01  -.266269912992E+01  -.266279599320E+01  -.266289920822E+01
  -.266300919610E+01  -.266312640571E+01  -.266325131549E+01  -.266338443543E+01  -.266352630914E+01
  -.266367751607E+01  -.266383867386E+01  -.266401044086E+01  -.266419351883E+01  -.266438865579E+01
  -.266459664908E+01  -.266481834856E+01  -.266505466013E+01  -.266530654939E+01  -.266557504557E+01
  -.266586124568E+01  -.266616631904E+01  -.266649151198E+01  -.266683815290E+01  -.266720765767E+01
  -.266760153539E+01  -.266802139447E+01  -.266846894915E+01  -.266894602646E+01  -.266945457358E+01
  -.266999666572E+01  -.267057451448E+01  -.267119047678E+01  -.267184706435E+01  -.267254695382E+01
  -.267329299747E+01  -.267408823469E+01  -.267493590417E+01  -.267583945681E+01  -.267680256954E+01
  -.267782915998E+01  -.267892340199E+01  -.268008974233E+01  -.268133291820E+01  -.268265797604E+01
  -.268407029141E+01  -.268557559016E+01  -.268717997089E+01  -.268888992886E+01  -.269071238127E+01
  -.269265469423E+01  -.269472471124E+01  -.269693078353E+01  -.269928180211E+01  -.270178723186E+01
  -.270445714758E+01  -.270730227216E+01  -.271033401707E+01  -.271356452513E+01  -.271700671575E+01
  -.272067433280E+01  -.272458199516E+01  -.272874525001E+01  -.273318062917E+01  -.273790570838E+01
  -.274293916981E+01  -.274830086781E+01  -.275401189803E+01  -.276009467003E+01  -.276657298342E+01
  -.277347210770E+01  -.278081886570E+01  -.278864172086E+01  -.279697086826E+01  -.280583832939E+01
  -.281527805068E+01  -.282532600574E+01  -.283602030116E+01  -.284740128575E+01  -.285951166306E+01
  -.287239660684E+01  -.288610387921E+01  -.290068395116E+01  -.291619012483E+01  -.293267865710E+01
  -.295020888381E+01  -.296884334397E+01  -.298864790291E+01  -.300969187371E+01  -.303204813562E+01
  -.305579324850E+01  -.308100756195E+01  -.310777531791E+01  -.313618474526E+01  -.316632814526E+01
  -.319830196633E+01  -.323220686715E+01  -.326814776697E+01  -.330623388268E+01  -.334657875237E+01
  -.338930024611E+01  -.343452056548E+01  -.348236623473E+01  -.353296808817E+01  -.358646126052E+01
  -.364298518967E+01  -.370268364459E+01  -.376570479533E+01  -.383220134680E+01  -.390233076349E+01
  -.397625561884E+01  -.405414410922E+01  -.413617077932E+01  -.422251751079E+01  -.431337482857E+01
  -.440894357596E+01  -.450943699587E+01  -.461508322447E+01  -.472612814325E+01  -.484283843026E+01
  -.496550447586E+01  -.509444255060E+01  -.522999519088E+01  -.537252815859E+01  -.552242150451E+01
  -.568005124874E+01  -.584575713463E+01  -.601979120392E+01  -.620224231801E+01  -.639293433161E+01
  -.659130158834E+01  -.679625494484E+01  -.700606167913E+01  -.721826422987E+01  -.742963852448E+01
  -.763612266887E+01  -.783253252254E+01  -.801180490309E+01  -.816372026837E+01  -.827391522707E+01
  -.832530910823E+01  -.830374701654E+01  -.820460817630E+01  -.807519604913E+01  -.795923282587E+01
  -.784764632457E+01  -.774459269886E+01  -.764509903160E+01  -.754911390806E+01
 core charge-density (pseudized)
   .268491442496E-08   .286236685941E-08   .305154755087E-08   .325323164797E-08   .346824553077E-08
   .369747019678E-08   .394184487074E-08   .420237085300E-08   .448011562226E-08   .477621720944E-08
   .509188886066E-08   .542842400837E-08   .578720157108E-08   .616969160332E-08   .657746131906E-08
   .701218151320E-08   .747563340745E-08   .796971594877E-08   .849645359004E-08   .905800458509E-08
   .965666983194E-08   .102949023004E-07   .109753170831E-07   .117007021101E-07   .124740295728E-07
   .132984681016E-07   .141773957493E-07   .151144138323E-07   .161133616867E-07   .171783323995E-07
   .183136895795E-07   .195240852369E-07   .208144788444E-07   .221901576581E-07   .236567583816E-07
   .252202902615E-07   .268871597099E-07   .286641965542E-07   .305586820213E-07   .325783785715E-07
   .347315617050E-07   .370270538694E-07   .394742606089E-07   .420832091026E-07   .448645892496E-07
   .478297974700E-07   .509909834007E-07   .543610996764E-07   .579539550029E-07   .617842707358E-07
   .658677412001E-07   .702210979962E-07   .748621785553E-07   .798099992273E-07   .850848331971E-07
   .907082935527E-07   .967034218423E-07   .103094782484E-06   .109908563417E-06   .117172683403E-06
   .124916906419E-06   .133172963616E-06   .141974683329E-06   .151358129687E-06   .161361750384E-06
   .172026534210E-06   .183396179000E-06   .195517270681E-06   .208439474154E-06   .222215736785E-06
   .236902505358E-06   .252559957352E-06   .269252247517E-06   .287047770737E-06   .306019442269E-06
   .326244996509E-06   .347807305493E-06   .370794718462E-06   .395301423853E-06   .421427835234E-06
   .449281002728E-06   .478975051640E-06   .510631650070E-06   .544380507432E-06   .580359905920E-06
   .618717267099E-06   .659609755948E-06   .703204924815E-06   .749681399942E-06   .799229613358E-06
   .852052583146E-06   .908366745277E-06   .968402840420E-06   .103240685937E-05   .110064105094E-05
   .117338499650E-05   .125093675549E-05   .133361408669E-05   .142175575016E-05   .151572289523E-05
   .161590054027E-05   .172269915020E-05   .183655631830E-05   .195793855912E-05   .208734321995E-05
   .222530051858E-05   .237237571571E-05   .252917143099E-05   .269633011209E-05   .287453666692E-05
   .306452126990E-05   .326706235356E-05   .348298979801E-05   .371318833102E-05   .395860115293E-05
   .422023380107E-05   .449915826959E-05   .479651740148E-05   .511352957097E-05   .545149367524E-05
   .581179445607E-05   .619590817318E-05   .660540865243E-05   .704197373377E-05   .750739214522E-05
   .800357083118E-05   .853254276488E-05   .909647527723E-05   .969767893593E-05   .103386170113E-04
   .110219155678E-04   .117503742218E-04   .125269776112E-04   .133549076216E-04   .142375564214E-04
   .151785403577E-04   .161817147704E-04   .172511897847E-04   .183913471478E-04   .196068581770E-04
   .209027028944E-04   .222841904251E-04   .237569807430E-04   .253271078536E-04   .270010045076E-04
   .287855285473E-04   .306879909931E-04   .327161859849E-04   .348784227017E-04   .371835593887E-04
   .396410396317E-04   .422609310267E-04   .450539664039E-04   .480315877728E-04   .512059931686E-04
   .545901865930E-04   .581980312499E-04   .620443062965E-04   .661447673402E-04   .705162109281E-04
   .751765432921E-04   .801448536310E-04   .854414922276E-04   .910881537190E-04   .971079658602E-04
   .103525584143E-03   .110367292652E-03   .117661111577E-03   .125436911805E-03   .133726537074E-03
   .142563934170E-03   .151985291710E-03   .162029188065E-03   .172736749025E-03   .184151815847E-03
   .196321124368E-03   .209294495905E-03   .223125040721E-03   .237869374864E-03   .253587851281E-03
   .270344806110E-03   .288208821167E-03   .307253003673E-03   .327555284345E-03   .349198735055E-03
   .372271907331E-03   .396869193049E-03   .423091208766E-03   .451045205227E-03   .480845503673E-03
   .512613960706E-03   .546480463521E-03   .582583457512E-03   .621070508298E-03   .662098900417E-03
   .705836275025E-03   .752461309110E-03   .802164438873E-03   .855148630109E-03   .911630198566E-03
   .971839683470E-03   .103602277758E-02   .110444131736E-02   .117737433702E-02   .125511919049E-02
   .133799274552E-02   .142633265443E-02   .152049870630E-02   .162087426553E-02   .172786780221E-02
   .184191451980E-02   .196347808610E-02   .209305247375E-02   .223116391678E-02   .237837299025E-02
   .253527682002E-02   .270251143062E-02   .288075423891E-02   .307072670210E-02   .327319712888E-02
   .348898366280E-02   .371895744743E-02   .396404598328E-02   .422523668674E-02   .450358066180E-02
   .480019669543E-02   .511627548804E-02   .545308413068E-02   .581197084075E-02   .619436996829E-02
   .660180728504E-02   .703590556855E-02   .749839049335E-02   .799109684123E-02   .851597504236E-02
   .907509805828E-02   .967066861742E-02   .103050268126E-01   .109806580692E-01   .117002014901E-01
   .124664585842E-01   .132824023790E-01   .141511869197E-01   .150761571492E-01   .160608591642E-01
   .171090508332E-01   .182247127616E-01   .194120595772E-01   .206755515067E-01   .220199062035E-01
   .234501107736E-01   .249714339414E-01   .265894382769E-01   .283099923942E-01   .301392830134E-01
   .320838267553E-01   .341504815178E-01   .363464572550E-01   .386793259517E-01   .411570305509E-01
   .437878925553E-01   .465806179805E-01   .495443012906E-01   .526884268933E-01   .560228677117E-01
   .595578802848E-01   .633040957750E-01   .672725061819E-01   .714744449692E-01   .759215612203E-01
   .806257863279E-01   .855992921120E-01   .908544391361E-01   .964037138620E-01   .102259653146E+00
   .108434754429E+00   .114941369836E+00   .121791582232E+00   .128997061135E+00   .136568896261E+00
   .144517406291E+00   .152851920387E+00   .161580529835E+00   .170709807175E+00   .180244490143E+00
   .190187127805E+00   .200537686415E+00   .211293112744E+00   .222446853035E+00   .233988326248E+00
   .245902351026E+00   .258168526767E+00   .270760570493E+00   .283645612784E+00   .296783458098E+00
   .310125817243E+00   .323615522789E+00   .337185741801E+00   .350759204517E+00   .364247472563E+00
   .377550276013E+00   .390554955047E+00   .403136049230E+00   .415155085293E+00   .426460622785E+00
   .436888625702E+00   .446263236953E+00   .454398040721E+00   .461097904775E+00   .466161499635E+00
   .469384593022E+00   .470564214693E+00   .469503776713E+00   .466019215173E+00   .459946188668E+00
   .451148323476E+00   .439526431949E+00   .425028545755E+00   .407660495821E+00   .387496633369E+00
   .364690119430E+00   .339482013812E+00   .312208171697E+00   .283302714013E+00   .253296589903E+00
   .222809516757E+00   .192533396824E+00   .163205212286E+00   .135567450423E+00   .110314379258E+00
   .880230689955E-01   .690690341426E-01   .535278589610E-01   .410907700713E-01   .312460221224E-01
   .235280387510E-01   .175374692322E-01   .129354551083E-01   .943769552469E-02
 pseudo wavefunction
   .177086613452E-04   .182845028349E-04   .188790692533E-04   .194929694885E-04   .201268322279E-04
   .207813066024E-04   .214570628508E-04   .221547930068E-04   .228752116068E-04   .236190564227E-04
   .243870892163E-04   .251800965205E-04   .259988904441E-04   .268443095036E-04   .277172194819E-04
   .286185143153E-04   .295491170084E-04   .305099805797E-04   .315020890376E-04   .325264583877E-04
   .335841376738E-04   .346762100521E-04   .358037939000E-04   .369680439621E-04   .381701525321E-04
   .394113506743E-04   .406929094843E-04   .420161413901E-04   .433824014971E-04   .447930889750E-04
   .462496484911E-04   .477535716898E-04   .493063987200E-04   .509097198123E-04   .525651769078E-04
   .542744653393E-04   .560393355677E-04   .578615949746E-04   .597431097129E-04   .616858066183E-04
   .636916751826E-04   .657627695905E-04   .679012108242E-04   .701091888344E-04   .723889647840E-04
   .747428733632E-04   .771733251804E-04   .796828092311E-04   .822738954467E-04   .849492373265E-04
   .877115746549E-04   .905637363074E-04   .935086431474E-04   .965493110177E-04   .996888538287E-04
   .102930486748E-03   .106277529491E-03   .109733409723E-03   .113301666570E-03   .116985954240E-03
   .120790045766E-03   .124717836872E-03   .128773349962E-03   .132960738237E-03   .137284289951E-03
   .141748432802E-03   .146357738463E-03   .151116927271E-03   .156030873054E-03   .161104608124E-03
   .166343328435E-03   .171752398898E-03   .177337358878E-03   .183103927868E-03   .189058011344E-03
   .195205706815E-03   .201553310065E-03   .208107321602E-03   .214874453315E-03   .221861635348E-03
   .229076023196E-03   .236525005034E-03   .244216209284E-03   .252157512423E-03   .260357047057E-03
   .268823210241E-03   .277564672085E-03   .286590384630E-03   .295909591017E-03   .305531834952E-03
   .315466970481E-03   .325725172080E-03   .336316945077E-03   .347253136411E-03   .358544945735E-03
   .370203936893E-03   .382242049760E-03   .394671612467E-03   .407505354032E-03   .420756417391E-03
   .434438372863E-03   .448565232044E-03   .463151462156E-03   .478212000870E-03   .493762271596E-03
   .509818199285E-03   .526396226736E-03   .543513331437E-03   .561187042950E-03   .579435460870E-03
   .598277273355E-03   .617731776271E-03   .637818892954E-03   .658559194613E-03   .679973921400E-03
   .702085004167E-03   .724915086922E-03   .748487550027E-03   .772826534144E-03   .797956964957E-03
   .823904578706E-03   .850695948548E-03   .878358511770E-03   .906920597899E-03   .936411457716E-03
   .966861293219E-03   .998301288559E-03   .103076364198E-02   .106428159882E-02   .109888948554E-02
   .113462274489E-02   .117151797224E-02   .120961295307E-02   .124894670163E-02   .128955950099E-02
   .133149294423E-02   .137478997710E-02   .141949494202E-02   .146565362350E-02   .151331329506E-02
   .156252276766E-02   .161333243971E-02   .166579434877E-02   .171996222479E-02   .177589154526E-02
   .183363959200E-02   .189326550993E-02   .195483036764E-02   .201839722003E-02   .208403117292E-02
   .215179944982E-02   .222177146083E-02   .229401887383E-02   .236861568796E-02   .244563830950E-02
   .252516563025E-02   .260727910843E-02   .269206285227E-02   .277960370626E-02   .286999134030E-02
   .296331834170E-02   .305968031018E-02   .315917595603E-02   .326190720146E-02   .336797928521E-02
   .347750087068E-02   .359058415749E-02   .370734499680E-02   .382790301033E-02   .395238171331E-02
   .408090864148E-02   .421361548221E-02   .435063820999E-02   .449211722630E-02   .463819750415E-02
   .478902873729E-02   .494476549443E-02   .510556737849E-02   .527159919107E-02   .544303110243E-02
   .562003882700E-02   .580280380476E-02   .599151338864E-02   .618636103801E-02   .638754651877E-02
   .659527610994E-02   .680976281722E-02   .703122659363E-02   .725989456751E-02   .749600127817E-02
   .773978891945E-02   .799150759137E-02   .825141556036E-02   .851977952821E-02   .879687491007E-02
   .908298612194E-02   .937840687783E-02   .968344049719E-02   .999840022264E-02   .103236095487E-01
   .106594025620E-01   .110061242925E-01   .113641310782E-01   .117337909407E-01   .121154839759E-01
   .125096027566E-01   .129165527501E-01   .133367527510E-01   .137706353283E-01   .142186472890E-01
   .146812501590E-01   .151589206799E-01   .156521513254E-01   .161614508354E-01   .166873447704E-01
   .172303760867E-01   .177911057320E-01   .183701132645E-01   .189679974952E-01   .195853771546E-01
   .202228915852E-01   .208812014611E-01   .215609895357E-01   .222629614193E-01   .229878463880E-01
   .237363982251E-01   .245093960970E-01   .253076454658E-01   .261319790399E-01   .269832577649E-01
   .278623718573E-01   .287702418829E-01   .297078198833E-01   .306760905518E-01   .316760724638E-01
   .327088193620E-01   .337754215034E-01   .348770070678E-01   .360147436353E-01   .371898397347E-01
   .384035464683E-01   .396571592181E-01   .409520194376E-01   .422895165372E-01   .436710898660E-01
   .450982307999E-01   .465724849405E-01   .480954544343E-01   .496688004185E-01   .512942456043E-01
   .529735770049E-01   .547086488200E-01   .565013854867E-01   .583537849083E-01   .602679218744E-01
   .622459516833E-01   .642901139831E-01   .664027368449E-01   .685862410840E-01   .708431448457E-01
   .731760684740E-01   .755877396800E-01   .780809990305E-01   .806588057761E-01   .833242440389E-01
   .860805293817E-01   .889310157785E-01   .918792030093E-01   .949287444989E-01   .980834556204E-01
   .101347322483E+00   .104724511220E+00   .108219377795E+00   .111836478334E+00   .115580579994E+00
   .119456672366E+00   .123469979405E+00   .127625971880E+00   .131930380310E+00   .136389208335E+00
   .141008746493E+00   .145795586285E+00   .150756634461E+00   .155899127358E+00   .161230645151E+00
   .166759125777E+00   .172492878286E+00   .178440595289E+00   .184611364113E+00   .191014676186E+00
   .197660434091E+00   .204558955615E+00   .211720973976E+00   .219157633309E+00   .226880478284E+00
   .234901436560E+00   .243232792590E+00   .251887151005E+00   .260877387596E+00   .270216585581E+00
   .279917954535E+00   .289994729013E+00   .300460043513E+00   .311326780024E+00   .322607383973E+00
   .334313643989E+00   .346456430406E+00   .359045387095E+00   .372088570763E+00   .385592031597E+00
   .399559328904E+00   .413990975349E+00   .428883803501E+00   .444230248865E+00   .460017544272E+00
   .476226821771E+00   .492832119897E+00   .509799296650E+00   .527084851840E+00   .544634666695E+00
   .562382674060E+00   .580249479277E+00   .598140960013E+00   .615946883081E+00   .633539587777E+00
   .650772798299E+00   .667480642433E+00   .683476969486E+00   .698555076926E+00   .712487971503E+00
   .725029305596E+00   .735915141415E+00   .744866702429E+00   .751594269993E+00   .755802370363E+00
   .757213111531E+00   .755728604264E+00   .751351618942E+00   .744113001478E+00
 ae wavefunction
  -.542183136441E-03  -.559593344800E-03  -.577561665026E-03  -.596105926205E-03  -.615244523068E-03
  -.634996433674E-03  -.655381237661E-03  -.676419135000E-03  -.698130965358E-03  -.720538228010E-03
  -.743663102369E-03  -.767528469112E-03  -.792157931953E-03  -.817575840052E-03  -.843807311073E-03
  -.870878254982E-03  -.898815398457E-03  -.927646310076E-03  -.957399426243E-03  -.988104077852E-03
  -.101979051769E-02  -.105248994874E-02  -.108623455316E-02  -.112105752224E-02  -.115699308709E-02
  -.119407655027E-02  -.123234431833E-02  -.127183393523E-02  -.131258411671E-02  -.135463478564E-02
  -.139802710834E-02  -.144280353188E-02  -.148900782250E-02  -.153668510495E-02  -.158588190299E-02
  -.163664618096E-02  -.168902738647E-02  -.174307649422E-02  -.179884605095E-02  -.185639022163E-02
  -.191576483678E-02  -.197702744109E-02  -.204023734317E-02  -.210545566666E-02  -.217274540259E-02
  -.224217146293E-02  -.231380073564E-02  -.238770214087E-02  -.246394668858E-02  -.254260753748E-02
  -.262376005541E-02  -.270748188094E-02  -.279385298650E-02  -.288295574278E-02  -.297487498464E-02
  -.306969807826E-02  -.316751498976E-02  -.326841835523E-02  -.337250355204E-02  -.347986877162E-02
  -.359061509346E-02  -.370484656052E-02  -.382267025594E-02  -.394419638094E-02  -.406953833408E-02
  -.419881279155E-02  -.433213978877E-02  -.446964280296E-02  -.461144883679E-02  -.475768850297E-02
  -.490849610977E-02  -.506400974722E-02  -.522437137414E-02  -.538972690568E-02  -.556022630131E-02
  -.573602365320E-02  -.591727727476E-02  -.610414978924E-02  -.629680821810E-02  -.649542406917E-02
  -.670017342418E-02  -.691123702557E-02  -.712880036221E-02  -.735305375398E-02  -.758419243460E-02
  -.782241663275E-02  -.806793165084E-02  -.832094794126E-02  -.858168117960E-02  -.885035233452E-02
  -.912718773376E-02  -.941241912558E-02  -.970628373572E-02  -.100090243185E-01  -.103208892020E-01
  -.106421323267E-01  -.109730132763E-01  -.113137973008E-01  -.116647553303E-01  -.120261639790E-01
  -.123983055388E-01  -.127814679604E-01  -.131759448228E-01  -.135820352875E-01  -.140000440391E-01
  -.144302812084E-01  -.148730622786E-01  -.153287079722E-01  -.157975441168E-01  -.162799014901E-01
  -.167761156392E-01  -.172865266759E-01  -.178114790434E-01  -.183513212535E-01  -.189064055927E-01
  -.194770877937E-01  -.200637266708E-01  -.206666837165E-01  -.212863226569E-01  -.219230089618E-01
  -.225771093092E-01  -.232489909982E-01  -.239390213094E-01  -.246475668078E-01  -.253749925858E-01
  -.261216614418E-01  -.268879329914E-01  -.276741627059E-01  -.284807008753E-01  -.293078914901E-01
  -.301560710388E-01  -.310255672151E-01  -.319166975299E-01  -.328297678244E-01  -.337650706779E-01
  -.347228837044E-01  -.357034677343E-01  -.367070648737E-01  -.377338964368E-01  -.387841607437E-01
  -.398580307803E-01  -.409556517110E-01  -.420771382409E-01  -.432225718187E-01  -.443919976764E-01
  -.455854216977E-01  -.468028071099E-01  -.480440709932E-01  -.493090806013E-01  -.505976494879E-01
  -.519095334329E-01  -.532444261643E-01  -.546019548710E-01  -.559816755007E-01  -.573830678422E-01
  -.588055303864E-01  -.602483749656E-01  -.617108211694E-01  -.631919905372E-01  -.646909005280E-01
  -.662064582699E-01  -.677374540942E-01  -.692825548580E-01  -.708402970639E-01  -.724090797865E-01
  -.739871574160E-01  -.755726322356E-01  -.771634468469E-01  -.787573764668E-01  -.803520211159E-01
  -.819447977282E-01  -.835329322118E-01  -.851134514959E-01  -.866831756036E-01  -.882387097957E-01
  -.897764368350E-01  -.912925094266E-01  -.927828428948E-01  -.942431081657E-01  -.956687251282E-01
  -.970548564558E-01  -.983964019777E-01  -.996879936941E-01  -.100923991543E+00  -.102098480026E+00
  -.103205265823E+00  -.104237876512E+00  -.105189560548E+00  -.106053288638E+00  -.106821756669E+00
  -.107487390362E+00  -.108042351820E+00  -.108478548150E+00  -.108787642362E+00  -.108961066722E+00
  -.108990038789E+00  -.108865580326E+00  -.108578539306E+00  -.108119615237E+00  -.107479388019E+00
  -.106648350555E+00  -.105616945326E+00  -.104375605157E+00  -.102914798355E+00  -.101225078435E+00
  -.992971385895E-01  -.971218710730E-01  -.946904316302E-01  -.919943090768E-01  -.890254001060E-01
  -.857760893542E-01  -.822393347200E-01  -.784087578757E-01  -.742787398573E-01  -.698445215573E-01
  -.651023088721E-01  -.600493821849E-01  -.546842097759E-01  -.490065646636E-01  -.430176442765E-01
  -.367201922437E-01  -.301186214687E-01  -.232191375158E-01  -.160298611977E-01  -.856094910657E-02
  -.824710700428E-03   .716427953943E-02   .153890764044E-01   .238302661759E-01   .324658780800E-01
   .412713060579E-01   .502192417021E-01   .592796191010E-01   .684195725247E-01   .776034084494E-01
   .867925943564E-01   .959457678789E-01   .105018770909E+00   .113964713859E+00   .122734075102E+00
   .131274839453E+00   .139532677770E+00   .147451167894E+00   .154972055964E+00   .162035556983E+00
   .168580693922E+00   .174545675236E+00   .179868310768E+00   .184486465676E+00   .188338551352E+00
   .191364051634E+00   .193504081790E+00   .194701977360E+00   .194903909394E+00   .194059522238E+00
   .192122589614E+00   .189051684372E+00   .184810856644E+00   .179370314715E+00   .172707102204E+00
   .164805764485E+00   .155658996449E+00   .145268262926E+00   .133644382213E+00   .120808062259E+00
   .106790378334E+00   .916331804391E-01   .753894184461E-01   .581233732544E-01   .399107831695E-01
   .208388563258E-01   .100616222500E-02  -.194776022467E-01  -.404919755603E-01  -.619062273933E-01
  -.835799975309E-01  -.105364099498E+00  -.127101527800E+00  -.148628722125E+00  -.169777128497E+00
  -.190375005292E+00  -.210249200279E+00  -.229226332464E+00  -.247132770258E+00  -.263793461054E+00
  -.279030965791E+00  -.292666736393E+00  -.304525238003E+00  -.314439031422E+00  -.322252585950E+00
  -.327824423734E+00  -.331028425718E+00  -.331755011413E+00  -.329912435339E+00  -.325428171517E+00
  -.318250262422E+00  -.308348495093E+00  -.295715294326E+00  -.280366268917E+00  -.262340391831E+00
  -.241699827351E+00  -.218529434312E+00  -.192935980076E+00  -.165047097736E+00  -.135010015362E+00
  -.102990080687E+00  -.691691007044E-01  -.337435123400E-01   .307760325120E-02   .410746233372E-01
   .800195928510E-01   .119678529286E+00   .159813761810E+00   .200186242135E+00   .240557754464E+00
   .280692950099E+00   .320361149725E+00   .359337894592E+00   .397406289938E+00   .434358260610E+00
   .469995921512E+00   .504133332377E+00   .536598920568E+00   .567238723372E+00   .595920135500E+00
   .622534836040E+00   .646998184072E+00   .669241948205E+00   .689200172564E+00   .706794367560E+00
   .721927742555E+00   .734492269877E+00   .744382549982E+00   .751507990656E+00   .755799698487E+00
   .757213111531E+00   .755728604264E+00   .751351618942E+00   .744113001478E+00
 pseudo wavefunction
  -.157985539943E-05  -.163122835664E-05  -.168427183435E-05  -.173904015372E-05  -.179558940232E-05
  -.185397749153E-05  -.191426421587E-05  -.197651131422E-05  -.204078253309E-05  -.210714369183E-05
  -.217566275010E-05  -.224640987741E-05  -.231945752505E-05  -.239488050021E-05  -.247275604264E-05
  -.255316390375E-05  -.263618642825E-05  -.272190863850E-05  -.281041832159E-05  -.290180611922E-05
  -.299616562054E-05  -.309359345800E-05  -.319418940629E-05  -.329805648452E-05  -.340530106175E-05
  -.351603296590E-05  -.363036559622E-05  -.374841603942E-05  -.387030518962E-05  -.399615787208E-05
  -.412610297112E-05  -.426027356204E-05  -.439880704744E-05  -.454184529792E-05  -.468953479739E-05
  -.484202679304E-05  -.499947745029E-05  -.516204801267E-05  -.532990496698E-05  -.550322021379E-05
  -.568217124346E-05  -.586694131792E-05  -.605771965839E-05  -.625470163910E-05  -.645808898740E-05
  -.666808999038E-05  -.688491970814E-05  -.710880019406E-05  -.733996072220E-05  -.757863802211E-05
  -.782507652128E-05  -.807952859543E-05  -.834225482702E-05  -.861352427209E-05  -.889361473583E-05
  -.918281305706E-05  -.948141540205E-05  -.978972756778E-05  -.101080652951E-04  -.104367545923E-04
  -.107761320687E-04  -.111265452795E-04  -.114883530818E-04  -.118619260023E-04  -.122476466162E-04
  -.126459099398E-04  -.130571238343E-04  -.134817094243E-04  -.139201015286E-04  -.143727491054E-04
  -.148401157128E-04  -.153226799831E-04  -.158209361131E-04  -.163353943702E-04  -.168665816155E-04
  -.174150418427E-04  -.179813367361E-04  -.185660462455E-04  -.191697691800E-04  -.197931238220E-04
  -.204367485603E-04  -.211013025436E-04  -.217874663564E-04  -.224959427158E-04  -.232274571913E-04
  -.239827589485E-04  -.247626215162E-04  -.255678435791E-04  -.263992497958E-04  -.272576916442E-04
  -.281440482934E-04  -.290592275047E-04  -.300041665618E-04  -.309798332311E-04  -.319872267534E-04
  -.330273788681E-04  -.341013548702E-04  -.352102547021E-04  -.363552140814E-04  -.375374056642E-04
  -.387580402478E-04  -.400183680115E-04  -.413196797982E-04  -.426633084380E-04  -.440506301144E-04
  -.454830657757E-04  -.469620825920E-04  -.484891954597E-04  -.500659685555E-04  -.516940169406E-04
  -.533750082177E-04  -.551106642416E-04  -.569027628863E-04  -.587531398693E-04  -.606636906357E-04
  -.626363723040E-04  -.646732056753E-04  -.667762773084E-04  -.689477416626E-04  -.711898233112E-04
  -.735048192264E-04  -.758951011403E-04  -.783631179827E-04  -.809113983987E-04  -.835425533490E-04
  -.862592787963E-04  -.890643584789E-04  -.919606667761E-04  -.949511716679E-04  -.980389377920E-04
  -.101227129602E-03  -.104519014627E-03  -.107917966848E-03  -.111427470168E-03  -.115051122020E-03
  -.118792637073E-03  -.122655851078E-03  -.126644724827E-03  -.130763348257E-03  -.135015944680E-03
  -.139406875163E-03  -.143940643044E-03  -.148621898612E-03  -.153455443929E-03  -.158446237828E-03
  -.163599401072E-03  -.168920221685E-03  -.174414160470E-03  -.180086856708E-03  -.185944134053E-03
  -.191992006629E-03  -.198236685335E-03  -.204684584363E-03  -.211342327947E-03  -.218216757333E-03
  -.225314938008E-03  -.232644167163E-03  -.240211981427E-03  -.248026164870E-03  -.256094757288E-03
  -.264426062781E-03  -.273028658633E-03  -.281911404519E-03  -.291083452035E-03  -.300554254575E-03
  -.310333577569E-03  -.320431509100E-03  -.330858470905E-03  -.341625229792E-03  -.352742909485E-03
  -.364223002913E-03  -.376077384970E-03  -.388318325766E-03  -.400958504393E-03  -.414011023225E-03
  -.427489422795E-03  -.441407697256E-03  -.455780310472E-03  -.470622212770E-03  -.485948858378E-03
  -.501776223600E-03  -.518120825755E-03  -.534999742937E-03  -.552430634631E-03  -.570431763233E-03
  -.589022016544E-03  -.608220931279E-03  -.628048717656E-03  -.648526285141E-03  -.669675269413E-03
  -.691518060627E-03  -.714077833072E-03  -.737378576290E-03  -.761445127792E-03  -.786303207438E-03
  -.811979453633E-03  -.838501461444E-03  -.865897822778E-03  -.894198168785E-03  -.923433214628E-03
  -.953634806806E-03  -.984835973232E-03  -.101707097625E-02  -.105037536885E-02  -.108478605428E-02
  -.112034134941E-02  -.115708105205E-02  -.119504651254E-02  -.123428071014E-02  -.127482833429E-02
  -.131673587144E-02  -.136005169777E-02  -.140482617831E-02  -.145111177297E-02  -.149896315016E-02
  -.154843730856E-02  -.159959370772E-02  -.165249440838E-02  -.170720422317E-02  -.176379087874E-02
  -.182232519024E-02  -.188288124922E-02  -.194553662616E-02  -.201037258890E-02  -.207747433829E-02
  -.214693126275E-02  -.221883721313E-02  -.229329079991E-02  -.237039571450E-02  -.245026107685E-02
  -.253300181160E-02  -.261873905528E-02  -.270760059720E-02  -.279972135699E-02  -.289524390178E-02
  -.299431900657E-02  -.309710626129E-02  -.320377472840E-02  -.331450365536E-02  -.342948324628E-02
  -.354891549757E-02  -.367301510269E-02  -.380201043125E-02  -.393614458825E-02  -.407567655935E-02
  -.422088244840E-02  -.437205681381E-02  -.452951411027E-02  -.469359024287E-02  -.486464424047E-02
  -.504306005528E-02  -.522924849550E-02  -.542364929764E-02  -.562673334452E-02  -.583900503471E-02
  -.606100480758E-02  -.629331182754E-02  -.653654682889E-02  -.679137512064E-02  -.705850974797E-02
  -.733871480337E-02  -.763280887629E-02  -.794166862447E-02  -.826623244386E-02  -.860750420586E-02
  -.896655702083E-02  -.934453697511E-02  -.974266677506E-02  -.101622492143E-01  -.106046703609E-01
  -.110714023369E-01  -.115640055362E-01  -.120841300902E-01  -.126335163576E-01  -.132139941629E-01
  -.138274804599E-01  -.144759750335E-01  -.151615537797E-01  -.158863590242E-01  -.166525862412E-01
  -.174624664268E-01  -.183182432549E-01  -.192221440003E-01  -.201763430509E-01  -.211829166486E-01
  -.222437872904E-01  -.233606559915E-01  -.245349203550E-01  -.257675761108E-01  -.270590994778E-01
  -.284093073657E-01  -.298171920812E-01  -.312807268185E-01  -.327966378323E-01  -.343601387908E-01
  -.359646224283E-01  -.376013042547E-01  -.392588127783E-01  -.409227204712E-01  -.425750096061E-01
  -.441934671624E-01  -.457510033061E-01  -.472148885622E-01  -.485459058257E-01  -.496974148962E-01
  -.506143294210E-01  -.512320091348E-01  -.514750742813E-01  -.512561542870E-01  -.504745893580E-01
  -.490151119218E-01  -.467465449826E-01  -.435205667354E-01  -.391706054033E-01  -.335109453740E-01
  -.263361453739E-01  -.174208915369E-01  -.652043250976E-02   .662823043081E-02   .223041988715E-01
   .407993535347E-01   .624136041516E-01   .874484494614E-01   .116198577496E+00   .148941244809E+00
   .185923202719E+00   .227344996151E+00   .273342554445E+00   .323966132297E+00   .379156851694E+00
   .438721349993E+00   .502305360561E+00   .569367441300E+00   .639154516468E+00   .710681391194E+00
   .782733642461E+00   .854031010431E+00   .923179930924E+00   .988616581477E+00
 ae wavefunction
  -.248507162461E-04  -.256487056662E-04  -.264722759681E-04  -.273222443460E-04  -.281994539205E-04
  -.291047745493E-04  -.300391036637E-04  -.310033671283E-04  -.319985201283E-04  -.330255480827E-04
  -.340854675847E-04  -.351793273707E-04  -.363082093177E-04  -.374732294710E-04  -.386755391006E-04
  -.399163257925E-04  -.411968145673E-04  -.425182690349E-04  -.438819925830E-04  -.452893295987E-04
  -.467416667257E-04  -.482404341604E-04  -.497871069819E-04  -.513832065226E-04  -.530303017777E-04
  -.547300108537E-04  -.564840024600E-04  -.582939974409E-04  -.601617703514E-04  -.620891510774E-04
  -.640780265004E-04  -.661303422090E-04  -.682481042567E-04  -.704333809686E-04  -.726883047967E-04
  -.750150742254E-04  -.774159557286E-04  -.798932857778E-04  -.824494729049E-04  -.850869998171E-04
  -.878084255686E-04  -.906163877870E-04  -.935136049567E-04  -.965028787605E-04  -.995870964790E-04
  -.102769233450E-03  -.106052355586E-03  -.109439621956E-03  -.112934287427E-03  -.116539705363E-03
  -.120259330396E-03  -.124096721249E-03  -.128055543634E-03  -.132139573200E-03  -.136352698559E-03
  -.140698924362E-03  -.145182374450E-03  -.149807295063E-03  -.154578058108E-03  -.159499164501E-03
  -.164575247559E-03  -.169811076458E-03  -.175211559751E-03  -.180781748946E-03  -.186526842134E-03
  -.192452187680E-03  -.198563287959E-03  -.204865803151E-03  -.211365555075E-03  -.218068531073E-03
  -.224980887934E-03  -.232108955847E-03  -.239459242401E-03  -.247038436599E-03  -.254853412902E-03
  -.262911235282E-03  -.271219161293E-03  -.279784646137E-03  -.288615346726E-03  -.297719125733E-03
  -.307104055613E-03  -.316778422597E-03  -.326750730631E-03  -.337029705270E-03  -.347624297489E-03
  -.358543687417E-03  -.369797287968E-03  -.381394748354E-03  -.393345957467E-03  -.405661047101E-03
  -.418350395005E-03  -.431424627731E-03  -.444894623272E-03  -.458771513438E-03  -.473066685971E-03
  -.487791786344E-03  -.502958719232E-03  -.518579649606E-03  -.534667003423E-03  -.551233467872E-03
  -.568291991126E-03  -.585855781572E-03  -.603938306453E-03  -.622553289885E-03  -.641714710193E-03
  -.661436796501E-03  -.681734024533E-03  -.702621111535E-03  -.724113010277E-03  -.746224902043E-03
  -.768972188539E-03  -.792370482646E-03  -.816435597909E-03  -.841183536704E-03  -.866630476951E-03
  -.892792757305E-03  -.919686860693E-03  -.947329396095E-03  -.975737078453E-03  -.100492670658E-02
  -.103491513891E-02  -.106571926704E-02  -.109735598679E-02  -.112984216672E-02  -.116319461395E-02
  -.119743003704E-02  -.123256500583E-02  -.126861590806E-02  -.130559890250E-02  -.134352986849E-02
  -.138242435164E-02  -.142229750547E-02  -.146316402882E-02  -.150503809871E-02  -.154793329856E-02
  -.159186254140E-02  -.163683798785E-02  -.168287095869E-02  -.172997184169E-02  -.177814999249E-02
  -.182741362914E-02  -.187776972027E-02  -.192922386633E-02  -.198178017390E-02  -.203544112254E-02
  -.209020742415E-02  -.214607787438E-02  -.220304919597E-02  -.226111587370E-02  -.232026998067E-02
  -.238050099579E-02  -.244179561216E-02  -.250413753627E-02  -.256750727765E-02  -.263188192910E-02
  -.269723493715E-02  -.276353586279E-02  -.283075013249E-02  -.289883877936E-02  -.296775817474E-02
  -.303745975014E-02  -.310788970992E-02  -.317898873486E-02  -.325069167704E-02  -.332292724647E-02
  -.339561769006E-02  -.346867846356E-02  -.354201789727E-02  -.361553685654E-02  -.368912839795E-02
  -.376267742264E-02  -.383606032799E-02  -.390914465936E-02  -.398178876366E-02  -.405384144667E-02
  -.412514163646E-02  -.419551805525E-02  -.426478890248E-02  -.433276155203E-02  -.439923226693E-02
  -.446398593495E-02  -.452679582905E-02  -.458742339681E-02  -.464561808326E-02  -.470111719202E-02
  -.475364578978E-02  -.480291665971E-02  -.484863030954E-02  -.489047504051E-02  -.492812708363E-02
  -.496125081004E-02  -.498949902271E-02  -.501251333657E-02  -.502992465497E-02  -.504135375016E-02
  -.504641195576E-02  -.504470197944E-02  -.503581884392E-02  -.501935096433E-02  -.499488137020E-02
  -.496198907963E-02  -.492025063342E-02  -.486924179601E-02  -.480853942990E-02  -.473772354929E-02
  -.465637955785E-02  -.456410067435E-02  -.446049054899E-02  -.434516607121E-02  -.421776036884E-02
  -.407792599583E-02  -.392533830431E-02  -.375969899396E-02  -.358073982952E-02  -.338822651410E-02
  -.318196270335E-02  -.296179414202E-02  -.272761290126E-02  -.247936169109E-02  -.221703821876E-02
  -.194069955918E-02  -.165046649915E-02  -.134652781234E-02  -.102914441667E-02  -.698653361047E-03
  -.355471584068E-03  -.993850600445E-07   .366876451972E-03   .744779935850E-03   .113284359175E-02
   .153020666102E-02   .193591379205E-02   .234891422606E-02   .276806148210E-02   .319211356196E-02
   .361973372875E-02   .404949195528E-02   .447986717820E-02   .490925051464E-02   .533594958656E-02
   .575819404345E-02   .617414228776E-02   .658188931717E-02   .697947553214E-02   .736489633839E-02
   .773611237994E-02   .809106025564E-02   .842766357036E-02   .874384415184E-02   .903753323032E-02
   .930668234658E-02   .954927371561E-02   .976332975890E-02   .994692149837E-02   .100981754994E-01
   .102152790477E-01   .102964832510E-01   .103401037561E-01   .103445187930E-01   .103081642689E-01
   .102295256631E-01   .101071265005E-01   .993951322183E-02   .972523631195E-02   .946282760097E-02
   .915077371339E-02   .878748571996E-02   .837126513180E-02   .790026649413E-02   .737245698088E-02
   .678557357661E-02   .613707867070E-02   .542411517364E-02   .464346258295E-02   .379149572266E-02
   .286414805851E-02   .185688139540E-02   .764663213717E-03  -.418048195458E-03  -.169731185350E-02
  -.307970608599E-02  -.457231913893E-02  -.618270886672E-02  -.791879570686E-02  -.978865816940E-02
  -.118002483255E-01  -.139611089490E-01  -.162781659169E-01  -.187575654281E-01  -.214044557405E-01
  -.242226606615E-01  -.272142583777E-01  -.303790974373E-01  -.337142697995E-01  -.372135492765E-01
  -.408667970251E-01  -.446593320276E-01  -.485712632163E-01  -.525767811016E-01  -.566434096755E-01
  -.607312230067E-01  -.647920343625E-01  -.687685689096E-01  -.725936336853E-01  -.761893012464E-01
  -.794661257024E-01  -.823224121863E-01  -.846435625693E-01  -.863015087928E-01  -.871542812741E-01
  -.870457563816E-01  -.858055766154E-01  -.832492888648E-01  -.791787393546E-01  -.733827757885E-01
  -.656383177833E-01  -.557118747123E-01  -.433616058811E-01  -.283400278396E-01  -.103974693998E-01
   .107136507134E-01   .352337022351E-01   .633899383286E-01   .953899553431E-01   .131414676018E+00
   .171610755860E+00   .216081555790E+00   .264874752185E+00   .317964544372E+00   .375228967362E+00
   .436426847763E+00   .501179592011E+00   .568958791847E+00   .639076902514E+00   .710678696020E+00
   .782733642461E+00   .854031010431E+00   .923179930924E+00   .988616581477E+00
 pseudo wavefunction
   .859944131239E-09   .916779901657E-09   .977372084476E-09   .104196895000E-08   .111083517732E-08
   .118425293879E-08   .126252305622E-08   .134596623347E-08   .143492437045E-08   .152976196409E-08
   .163086760178E-08   .173865555358E-08   .185356746968E-08   .197607418994E-08   .210667767320E-08
   .224591305394E-08   .239435083497E-08   .255259922501E-08   .272130663073E-08   .290116431356E-08
   .309290922206E-08   .329732701149E-08   .351525526294E-08   .374758691526E-08   .399527392375E-08
   .425933116074E-08   .454084057388E-08   .484095561935E-08   .516090598803E-08   .550200264398E-08
   .586564319606E-08   .625331762442E-08   .666661438558E-08   .710722692098E-08   .757696059563E-08
   .807774009548E-08   .861161731354E-08   .918077975740E-08   .978755951224E-08   .104344427964E-07
   .111240801481E-07   .118592972865E-07   .126431066887E-07   .134787199341E-07   .143695608628E-07
   .153192796049E-07   .163317675362E-07   .174111732229E-07   .185619194199E-07   .197887211925E-07
   .210966052361E-07   .224909304722E-07   .239774100065E-07   .255621345375E-07   .272515973123E-07
   .290527207327E-07   .309728847182E-07   .330199569449E-07   .352023250828E-07   .375289311626E-07
   .400093082156E-07   .426536193336E-07   .454726993118E-07   .484780990426E-07   .516821328448E-07
   .550979289197E-07   .587394831430E-07   .626217164111E-07   .667605357782E-07   .711728996338E-07
   .758768871875E-07   .808917725475E-07   .862381036933E-07   .919377866698E-07   .980141753444E-07
   .104492167097E-06   .111398304836E-06   .118760885751E-06   .126610077264E-06   .134978040630E-06
   .143899062720E-06   .153409696506E-06   .163548910831E-06   .174358250083E-06   .185882004415E-06
   .198167391224E-06   .211264748615E-06   .225227741657E-06   .240113582271E-06   .255983263648E-06
   .272901810165E-06   .290938543810E-06   .310167368227E-06   .330667071525E-06   .352521649102E-06
   .375820647812E-06   .400659532868E-06   .427140079001E-06   .455370787473E-06   .485467330647E-06
   .517553025939E-06   .551759341102E-06   .588226432893E-06   .627103721355E-06   .668550502044E-06
   .712736598726E-06   .759843059206E-06   .810062897152E-06   .863601882944E-06   .920679386791E-06
   .981529277574E-06   .104640088109E-05   .111556000165E-05   .118929001114E-05   .126789301013E-05
   .135169106568E-05   .144102753098E-05   .153626845216E-05   .163780406812E-05   .174605040952E-05
   .186145100334E-05   .198447869020E-05   .211563756173E-05   .225546502604E-05   .240453400963E-05
   .256345530486E-05   .273288007259E-05   .291350251017E-05   .310606269580E-05   .331134962088E-05
   .353020442270E-05   .376352383089E-05   .401226384154E-05   .427744363422E-05   .456014974785E-05
   .486154053249E-05   .518285089547E-05   .552539736112E-05   .589058346483E-05   .627990550373E-05
   .669495866733E-05   .713744357336E-05   .760917323552E-05   .811208049179E-05   .864822592353E-05
   .921980629810E-05   .982916356926E-05   .104787944725E-04   .111713607543E-04   .119097000779E-04
   .126968376490E-04   .135359986103E-04   .144306212552E-04   .153843711141E-04   .164011559724E-04
   .174851418803E-04   .186407702205E-04   .198727759046E-04   .211862067708E-04   .225864442641E-04
   .240792254832E-04   .256706666834E-04   .273672883332E-04   .291760418263E-04   .311043379590E-04
   .331600772881E-04   .353516824961E-04   .376881328935E-04   .401790012019E-04   .428344927661E-04
   .456654873576E-04   .486835837398E-04   .519011471770E-04   .553313600822E-04   .589882760106E-04
   .628868772196E-04   .670431360313E-04   .714740802478E-04   .761978628875E-04   .812338365269E-04
   .866026325525E-04   .923262456467E-04   .984281238526E-04   .104933264586E-03   .111868316989E-03
   .119261691038E-03   .127143673857E-03   .135546553712E-03   .144504752188E-03   .154054965088E-03
   .164236312636E-03   .175090499594E-03   .186661985936E-03   .198998168793E-03   .212149576397E-03
   .226170074820E-03   .241117088348E-03   .257051834389E-03   .274039573874E-03   .292149878159E-03
   .311456913529E-03   .332039744450E-03   .353982656802E-03   .377375502410E-03   .402314066265E-03
   .428900457934E-03   .457243528731E-03   .487459316357E-03   .519671518785E-03   .554011999330E-03
   .590621324933E-03   .629649339822E-03   .671255776886E-03   .715610909200E-03   .762896244346E-03
   .813305264293E-03   .867044213829E-03   .924332940696E-03   .985405790777E-03   .105051256194E-02
   .111991952029E-02   .119391048297E-02   .127278797169E-02   .135687444164E-02   .144651359067E-02
   .154207175378E-02   .164393938855E-02   .175253265726E-02   .186829511196E-02   .199169948889E-02
   .212324961953E-02   .226348246537E-02   .241297028447E-02   .257232293800E-02   .274219034576E-02
   .292326509976E-02   .311628524609E-02   .332203724526E-02   .354135912234E-02   .377514381845E-02
   .402434275612E-02   .428996963152E-02   .457310444740E-02   .487489780132E-02   .519657544449E-02
   .553944312732E-02   .590489174876E-02   .629440282718E-02   .670955431151E-02   .715202675227E-02
   .762360985301E-02   .812620942343E-02   .866185475679E-02   .923270645458E-02   .984106472272E-02
   .104893781642E-01   .111802530943E-01   .119164634040E-01   .127009610007E-01   .135368868518E-01
   .144275826617E-01   .153766032088E-01   .163877293738E-01   .174649818855E-01   .186126358142E-01
   .198352358402E-01   .211376123237E-01   .225248982018E-01   .240025467356E-01   .255763501286E-01
   .272524590338E-01   .290374029624E-01   .309381116031E-01   .329619370536E-01   .351166769607E-01
   .374105985532E-01   .398524635451E-01   .424515538714E-01   .452176982074E-01   .481612992018E-01
   .512933613386E-01   .546255193172E-01   .581700668154E-01   .619399854697E-01   .659489738733E-01
   .702114763527E-01   .747427112383E-01   .795586982953E-01   .846762849210E-01   .901131706512E-01
   .958879294429E-01   .102020029119E+00   .108529847267E+00   .115438682773E+00   .122768762068E+00
   .130543239027E+00   .138786187297E+00   .147522583723E+00   .156778281284E+00   .166579969849E+00
   .176955122758E+00   .187931927075E+00   .199539195056E+00   .211806254123E+00   .224762812335E+00
   .238438796026E+00   .252864155934E+00   .268068637819E+00   .284081513135E+00   .300931264991E+00
   .318645224185E+00   .337249149717E+00   .356766747745E+00   .377219122579E+00   .398624152885E+00
   .420995785943E+00   .444343242462E+00   .468670124226E+00   .493973416658E+00   .520242378330E+00
   .547457309564E+00   .575588192474E+00   .604593195371E+00   .634417035182E+00   .664989192737E+00
   .696221977352E+00   .728008439381E+00   .760220132280E+00   .792704729585E+00   .825283507198E+00
   .857748707756E+00   .889860812150E+00   .921345753718E+00   .951892124005E+00   .981148435759E+00
   .100872052991E+01   .103416923937E+01   .105700845481E+01   .107670487362E+01
 ae wavefunction
   .505583412180E-06   .535972458637E-06   .568053130205E-06   .601927755040E-06   .637704526331E-06
   .675497865683E-06   .715428806819E-06   .757625405259E-06   .802223170367E-06   .849365525163E-06
   .899204293578E-06   .951900218041E-06   .100762350835E-05   .106655442454E-05   .112888389701E-05
   .119481418136E-05   .126455955928E-05   .133834707868E-05   .141641734195E-05   .149902534113E-05
   .158644135055E-05   .167895186758E-05   .177686061949E-05   .188048962983E-05   .199018035122E-05
   .210629487249E-05   .222921719902E-05   .235935461469E-05   .249713913087E-05   .264302902492E-05
   .279751047814E-05   .296109931583E-05   .313434285853E-05   .331782189051E-05   .351215275308E-05
   .371798957126E-05   .393602662194E-05   .416700085279E-05   .441169456181E-05   .467093824757E-05
   .494561364145E-05   .523665693342E-05   .554506220385E-05   .587188507477E-05   .621824659455E-05
   .658533737104E-05   .697442196945E-05   .738684359153E-05   .782402905462E-05   .828749408940E-05
   .877884897735E-05   .929980454969E-05   .985217856835E-05   .104379025225E-04   .110590288504E-04
   .117177386334E-04   .124163497788E-04   .131573257267E-04   .139432847200E-04   .147770096530E-04
   .156614585763E-04   .165997758466E-04   .175953040126E-04   .186515964451E-04   .197724307849E-04
   .209618232461E-04   .222240438354E-04   .235636325414E-04   .249854165576E-04   .264945286072E-04
   .280964264282E-04   .297969135116E-04   .316021611498E-04   .335187318906E-04   .355536044853E-04
   .377142004149E-04   .400084121052E-04   .424446329277E-04   .450317891020E-04   .477793736127E-04
   .506974822751E-04   .537968520722E-04   .570889019147E-04   .605857759624E-04   .643003896725E-04
   .682464787412E-04   .724386511130E-04   .768924422482E-04   .816243738471E-04   .866520162442E-04
   .919940546714E-04   .976703596900E-04   .103702061943E-03   .110111631581E-03   .116922962589E-03
   .124161462327E-03   .131854146575E-03   .140029740447E-03   .148718785479E-03   .157953753278E-03
   .167769166117E-03   .178201724862E-03   .189290444690E-03   .201076799022E-03   .213604872142E-03
   .226921521024E-03   .241076546869E-03   .256122876911E-03   .272116757074E-03   .289117956065E-03
   .307189981578E-03   .326400309238E-03   .346820625002E-03   .368527081755E-03   .391600570849E-03
   .416127009396E-03   .442197644147E-03   .469909372833E-03   .499365083862E-03   .530674015331E-03
   .563952134334E-03   .599322537572E-03   .636915874337E-03   .676870792966E-03   .719334411884E-03
   .764462816422E-03   .812421582595E-03   .863386329119E-03   .917543298855E-03   .975089971127E-03
   .103623570605E-02   .110120242242E-02   .117022531042E-02   .124355358050E-02   .132145125003E-02
   .140419796891E-02   .149208988562E-02   .158544055523E-02   .168458189050E-02   .178986515773E-02
   .190166201830E-02   .202036561756E-02   .214639172186E-02   .228017990513E-02   .242219478585E-02
   .257292731526E-02   .273289611765E-02   .290264888319E-02   .308276381371E-02   .327385112146E-02
   .347655458085E-02   .369155313262E-02   .391956253969E-02   .416133709357E-02   .441767136965E-02
   .468940202942E-02   .497740966684E-02   .528262069587E-02   .560600927502E-02   .594859926458E-02
   .631146621093E-02   .669573935167E-02   .710260363437E-02   .753330174048E-02   .798913610495E-02
   .847147092080E-02   .898173411646E-02   .952141929220E-02   .100920876004E-01   .106953695530E-01
   .113329667362E-01   .120066534131E-01   .127182779903E-01   .134697643226E-01   .142631128294E-01
   .151004013915E-01   .159837859959E-01   .169155010911E-01   .178978596162E-01   .189332526598E-01
   .200241487033E-01   .211730924010E-01   .223827028426E-01   .236556712435E-01   .249947580016E-01
   .264027890579E-01   .278826514930E-01   .294372882873E-01   .310696921709E-01   .327828984837E-01
   .345799769626E-01   .364640223711E-01   .384381438817E-01   .405054531190E-01   .426690507705E-01
   .449320116683E-01   .472973682455E-01   .497680922697E-01   .523470747554E-01   .550371039628E-01
   .578408413871E-01   .607607956509E-01   .637992942164E-01   .669584528395E-01   .702401426999E-01
   .736459551481E-01   .771771640267E-01   .808346855364E-01   .846190356348E-01   .885302849779E-01
   .925680114358E-01   .967312502415E-01   .101018441862E+00   .105427377711E+00   .109955143872E+00
   .114598063020E+00   .119351634816E+00   .124210475057E+00   .129168253975E+00   .134217634101E+00
   .139350208226E+00   .144556438030E+00   .149825594052E+00   .155145697708E+00   .160503466106E+00
   .165884260356E+00   .171272037980E+00   .176649309805E+00   .181997101442E+00   .187294919129E+00
   .192520719482E+00   .197650882720E+00   .202660189375E+00   .207521801414E+00   .212207250090E+00
   .216686434296E+00   .220927634446E+00   .224897547508E+00   .228561348376E+00   .231882781290E+00
   .234824282478E+00   .237347132553E+00   .239411635364E+00   .240977319665E+00   .242003161232E+00
   .242447824616E+00   .242269925103E+00   .241428311780E+00   .239882372291E+00   .237592359155E+00
   .234519737001E+00   .230627549385E+00   .225880803791E+00   .220246873138E+00   .213695912015E+00
   .206201285706E+00   .197740009909E+00   .188293198589E+00   .177846517131E+00   .166390637394E+00
   .153921690685E+00   .140441713987E+00   .125959084042E+00   .110488933105E+00   .940535393771E-01
   .766826844168E-01   .584139693627E-01   .392930815183E-01   .193740031834E-01  -.128084456009E-02
  -.226005289714E-01  -.445056077486E-01  -.669082086918E-01  -.897121894943E-01  -.112813383451E+00
  -.136099945452E+00  -.159452828136E+00  -.182746439078E+00  -.205849545736E+00  -.228626474380E+00
  -.250938531387E+00  -.272645303123E+00  -.293605145356E+00  -.313674150398E+00  -.332703717366E+00
  -.350538428615E+00  -.367016721707E+00  -.381975045384E+00  -.395253158810E+00  -.406697863788E+00
  -.416164729036E+00  -.423518861512E+00  -.428635620152E+00  -.431401587415E+00  -.431715781542E+00
  -.429490975082E+00  -.424654963979E+00  -.417151658142E+00  -.406941914661E+00  -.394004085345E+00
  -.378334287401E+00  -.359946424542E+00  -.338871992347E+00  -.315159698567E+00  -.288874924433E+00
  -.260099045587E+00  -.228928625381E+00  -.195474487045E+00  -.159860639545E+00  -.122223122145E+00
  -.827087887755E-01  -.414739530809E-01   .131704308635E-02   .454932943525E-01   .908787677992E-01
   .137293640519E+00   .184555470344E+00   .232480156643E+00   .280882700714E+00   .329577853071E+00
   .378380831755E+00   .427108393381E+00   .475580600377E+00   .523623556429E+00   .571072967099E+00
   .617777336703E+00   .663597974499E+00   .708402040423E+00   .752047400823E+00   .794365006885E+00
   .835149614762E+00   .874164631861E+00   .911155968811E+00   .945865689261E+00   .978040753542E+00
   .100743738493E+01   .103382335370E+01   .105697999463E+01   .107670487362E+01
 pseudo wavefunction
  -.369574643380E-09  -.394000718110E-09  -.420041170715E-09  -.447802699302E-09  -.477399053912E-09
  -.508951502598E-09  -.542589328310E-09  -.578450358621E-09  -.616681530455E-09  -.657439492152E-09
  -.700891245317E-09  -.747214829091E-09  -.796600049649E-09  -.849249257913E-09  -.905378178662E-09
  -.965216794443E-09  -.102901028790E-08  -.109702004640E-08  -.116952473300E-08  -.124682142829E-08
  -.132922684763E-08  -.141707863885E-08  -.151073676573E-08  -.161058498294E-08  -.171703240840E-08
  -.183051519962E-08  -.195149834082E-08  -.208047754812E-08  -.221798130073E-08  -.236457300630E-08
  -.252085330947E-08  -.268746255292E-08  -.286508340109E-08  -.305444363739E-08  -.325631914617E-08
  -.347153709184E-08  -.370097930808E-08  -.394558591111E-08  -.420635915166E-08  -.448436752165E-08
  -.478075013219E-08  -.509672138096E-08  -.543357592814E-08  -.579269400109E-08  -.617554704975E-08
  -.658370377570E-08  -.701883655981E-08  -.748272831459E-08  -.797727978959E-08  -.850451735944E-08
  -.906660132677E-08  -.966583477382E-08  -.103046729991E-07  -.109857335777E-07  -.117118070866E-07
  -.124858685387E-07  -.133110895728E-07  -.141908514489E-07  -.151287589026E-07  -.161286549154E-07
  -.171946364606E-07  -.183310712903E-07  -.195426158322E-07  -.208342342684E-07  -.222112188760E-07
  -.236792117114E-07  -.252442277285E-07  -.269126794237E-07  -.286914031115E-07  -.305876869347E-07
  -.326093007273E-07  -.347645278510E-07  -.370621991346E-07  -.395117290587E-07  -.421231543294E-07
  -.449071750039E-07  -.478751983323E-07  -.510393854982E-07  -.544127014478E-07  -.580089680127E-07
  -.618429205438E-07  -.659302682881E-07  -.702877587557E-07  -.749332463419E-07  -.798857654835E-07
  -.851656086512E-07  -.907944094965E-07  -.967952314936E-07  -.103192662440E-06  -.110012915205E-06
  -.117283935131E-06  -.125035514542E-06  -.133299414813E-06  -.142109496512E-06  -.151501858137E-06
  -.161514984034E-06  -.172189902079E-06  -.183570351790E-06  -.195702963546E-06  -.208637449653E-06
  -.222426808040E-06  -.237127539410E-06  -.252799878757E-06  -.269508042169E-06  -.287320489959E-06
  -.306310207170E-06  -.326555002641E-06  -.348137827816E-06  -.371147116646E-06  -.395677147940E-06
  -.421828431675E-06  -.449708120839E-06  -.479430450485E-06  -.511117205821E-06  -.544898221219E-06
  -.580911912225E-06  -.619305842717E-06  -.660237329559E-06  -.703874087221E-06  -.750394914997E-06
  -.799990429655E-06  -.852863846507E-06  -.909231812113E-06  -.969325292011E-06  -.103339051714E-05
  -.110168999282E-05  -.117450357438E-05  -.125212961396E-05  -.133488618309E-05  -.142311237599E-05
  -.151716969918E-05  -.161744355281E-05  -.172434480999E-05  -.183831150046E-05  -.195981060558E-05
  -.208933997201E-05  -.222743035181E-05  -.237464757748E-05  -.253159488074E-05  -.269891536460E-05
  -.287729463886E-05  -.306746362984E-05  -.327020157588E-05  -.348633922081E-05  -.371676221860E-05
  -.396241476310E-05  -.422430345775E-05  -.450350144113E-05  -.480115278526E-05  -.511847718479E-05
  -.545677495617E-05  -.581743236738E-05  -.620192732015E-05  -.661183540784E-05  -.704883637401E-05
  -.751472099803E-05  -.801139843614E-05  -.854090404792E-05  -.910540774053E-05  -.970722286476E-05
  -.103488156996E-04  -.110328155640E-04  -.117620255982E-04  -.125394342571E-04  -.133682275656E-04
  -.142518021836E-04  -.151937793359E-04  -.161980196646E-04  -.172686390629E-04  -.184100255591E-04
  -.196268573159E-04  -.209241218231E-04  -.223071363601E-04  -.237815698135E-04  -.253534659396E-04
  -.270292681677E-04  -.288158460465E-04  -.307205234423E-04  -.327511086057E-04  -.349159262316E-04
  -.372238516433E-04  -.396843472435E-04  -.423075013828E-04  -.451040698050E-04  -.480855198430E-04
  -.512640775473E-04  -.546527779417E-04  -.582655186171E-04  -.621171168831E-04  -.662233707174E-04
  -.706011237651E-04  -.752683346596E-04  -.802441509527E-04  -.855489879644E-04  -.912046128802E-04
  -.972342344488E-04  -.103662598655E-03  -.110516090770E-03  -.117822844208E-03  -.125612856648E-03
  -.133918113905E-03  -.142772722082E-03  -.152213048555E-03  -.162277872395E-03  -.173008544857E-03
  -.184449160631E-03  -.196646740573E-03  -.209651426706E-03  -.223516690332E-03  -.238299554135E-03
  -.254060829249E-03  -.270865368302E-03  -.288782335551E-03  -.307885495273E-03  -.328253519671E-03
  -.349970317657E-03  -.373125385955E-03  -.397814184067E-03  -.424138534790E-03  -.452207052048E-03
  -.482135597972E-03  -.514047771285E-03  -.548075429196E-03  -.584359245186E-03  -.623049305245E-03
  -.664305745283E-03  -.708299432691E-03  -.755212695212E-03  -.805240100544E-03  -.858589290340E-03
  -.915481872587E-03  -.976154376603E-03  -.104085927526E-02  -.110986607936E-02  -.118346250957E-02
  -.126195575151E-02  -.134567380039E-02  -.143496690174E-02  -.153020909547E-02  -.163179987105E-02
  -.174016594218E-02  -.185576314997E-02  -.197907850433E-02  -.211063237410E-02  -.225098083717E-02
  -.240071820267E-02  -.256047971835E-02  -.273094447704E-02  -.291283853723E-02  -.310693827384E-02
  -.331407397618E-02  -.353513371148E-02  -.377106747323E-02  -.402289163487E-02  -.429169373045E-02
  -.457863758473E-02  -.488496881647E-02  -.521202073899E-02  -.556122068302E-02  -.593409676693E-02
  -.633228513918E-02  -.675753771720E-02  -.721173044562E-02  -.769687209394E-02  -.821511361085E-02
  -.876875804689E-02  -.936027105059E-02  -.999229193404E-02  -.106676452919E-01  -.113893531426E-01
  -.121606475401E-01  -.129849835809E-01  -.138660526983E-01  -.148077960981E-01  -.158144181407E-01
  -.168903994156E-01  -.180405091816E-01  -.192698167571E-01  -.205837013355E-01  -.219878595732E-01
  -.234883101371E-01  -.250913942133E-01  -.268037707505E-01  -.286324049463E-01  -.305845481669E-01
  -.326677071145E-01  -.348895996234E-01  -.372580939465E-01  -.397811278055E-01  -.424666027876E-01
  -.453222488864E-01  -.483554530881E-01  -.515730448947E-01  -.549810305458E-01  -.585842664545E-01
  -.623860610190E-01  -.663876925144E-01  -.705878292567E-01  -.749818366855E-01  -.795609545115E-01
  -.843113257070E-01  -.892128580012E-01  -.942378978539E-01  -.993496968286E-01  -.104500651153E+00
  -.109630297394E+00  -.114663051013E+00  -.119505680656E+00  -.124044519944E+00  -.128142431106E+00
  -.131635551731E+00  -.134329878239E+00  -.135997768348E+00  -.136374480695E+00  -.135154913914E+00
  -.131990760420E+00  -.126488352200E+00  -.118207546742E+00  -.106662079580E+00  -.913218930770E-01
  -.716180348107E-01  -.469507964212E-01  -.167018256223E-01   .197490227376E-01   .630013428611E-01
   .113605666065E+00   .172028274387E+00   .238609120553E+00   .313513068735E+00   .396675276715E+00
   .487742337654E+00   .586011793201E+00   .690373800532E+00   .799260030935E+00   .910606197079E+00
   .102183579230E+01   .112987345346E+01   .123119653747E+01   .132193398842E+01
 ae wavefunction
  -.495322294057E-07  -.525095024454E-07  -.556525062904E-07  -.589712663136E-07  -.624763825018E-07
  -.661790650580E-07  -.700911719943E-07  -.742252492700E-07  -.785945731208E-07  -.832131951093E-07
  -.880959898631E-07  -.932587057855E-07  -.987180188305E-07  -.104491589610E-06  -.110598124149E-06
  -.117057438044E-06  -.123890525134E-06  -.131119630011E-06  -.138768325254E-06  -.146861593250E-06
  -.155425913652E-06  -.164489355555E-06  -.174081676131E-06  -.184234425119E-06  -.194981055803E-06
  -.206357043285E-06  -.218400009926E-06  -.231149858782E-06  -.244648915571E-06  -.258942079404E-06
  -.274076983269E-06  -.290104164509E-06  -.307077246200E-06  -.325053130013E-06  -.344092201309E-06
  -.364258547293E-06  -.385620189038E-06  -.408249328279E-06  -.432222609933E-06  -.457621401362E-06
  -.484532089452E-06  -.513046396660E-06  -.543261717245E-06  -.575281475005E-06  -.609215503871E-06
  -.645180452860E-06  -.683300216951E-06  -.723706395531E-06  -.766538780215E-06  -.811945873891E-06
  -.860085443053E-06  -.911125105540E-06  -.965242955710E-06  -.102262823033E-05  -.108348201614E-05
  -.114801800362E-05  -.121646328879E-05  -.128905922617E-05  -.136606233703E-05  -.144774527430E-05
  -.153439785180E-05  -.162632813652E-05  -.172386361329E-05  -.182735242201E-05  -.193716467533E-05
  -.205369385990E-05  -.217735832746E-05  -.230860288095E-05  -.244790046192E-05  -.259575394578E-05
  -.275269805081E-05  -.291930136994E-05  -.309616853081E-05  -.328394249363E-05  -.348330699528E-05
  -.369498914818E-05  -.391976220439E-05  -.415844849491E-05  -.441192255502E-05  -.468111444713E-05
  -.496701329399E-05  -.527067103456E-05  -.559320641706E-05  -.593580924304E-05  -.629974487856E-05
  -.668635904867E-05  -.709708293258E-05  -.753343857780E-05  -.799704465297E-05  -.848962256005E-05
  -.901300292563E-05  -.956913250047E-05  -.101600814821E-04  -.107880512953E-04  -.114553828525E-04
  -.121645653250E-04  -.129182454526E-04  -.137192374290E-04  -.145705333910E-04  -.154753145505E-04
  -.164369630068E-04  -.174590742764E-04  -.185454705863E-04  -.197002149708E-04  -.209276262197E-04
  -.222322947273E-04  -.236190992920E-04  -.250932249215E-04  -.266601817000E-04  -.283258247746E-04
  -.300963755272E-04  -.319784439932E-04  -.339790525975E-04  -.361056612782E-04  -.383661940739E-04
  -.407690672515E-04  -.433232190560E-04  -.460381411694E-04  -.489239119639E-04  -.519912316442E-04
  -.552514593738E-04  -.587166524843E-04  -.623996078712E-04  -.663139056828E-04  -.704739554124E-04
  -.748950445076E-04  -.795933896127E-04  -.845861905679E-04  -.898916872812E-04  -.955292196126E-04
  -.101519290381E-03  -.107883631642E-03  -.114645274362E-03  -.121828621616E-03  -.129459525462E-03
  -.137565367605E-03  -.146175144003E-03  -.155319553541E-03  -.165031090903E-03  -.175344143771E-03
  -.186295094473E-03  -.197922426201E-03  -.210266833902E-03  -.223371339950E-03  -.237281414674E-03
  -.252045101841E-03  -.267713149132E-03  -.284339143663E-03  -.301979652579E-03  -.320694368700E-03
  -.340546261208E-03  -.361601731301E-03  -.383930772723E-03  -.407607137022E-03  -.432708503371E-03
  -.459316652698E-03  -.487517645855E-03  -.517402005459E-03  -.549064900993E-03  -.582606336660E-03
  -.618131341418E-03  -.655750160507E-03  -.695578447698E-03  -.737737457369E-03  -.782354235391E-03
  -.829561807689E-03  -.879499365160E-03  -.932312443525E-03  -.988153096470E-03  -.104718006029E-02
  -.110955890798E-02  -.117546219067E-02  -.124506956375E-02  -.131856789524E-02  -.139615135320E-02
  -.147802146912E-02  -.156438717368E-02  -.165546480099E-02  -.175147805720E-02  -.185265794894E-02
  -.195924266657E-02  -.207147741715E-02  -.218961420127E-02  -.231391152774E-02  -.244463405967E-02
  -.258205218474E-02  -.272644150269E-02  -.287808222166E-02  -.303725845561E-02  -.320425741365E-02
  -.337936847236E-02  -.356288212146E-02  -.375508877271E-02  -.395627742181E-02  -.416673415256E-02
  -.438674047216E-02  -.461657146667E-02  -.485649376496E-02  -.510676329997E-02  -.536762285567E-02
  -.563929938843E-02  -.592200111194E-02  -.621591433487E-02  -.652120004147E-02  -.683799020565E-02
  -.716638383052E-02  -.750644270614E-02  -.785818688015E-02  -.822158983724E-02  -.859657338591E-02
  -.898300225304E-02  -.938067838973E-02  -.978933499505E-02  -.102086302679E-01  -.106381409012E-01
  -.110773553384E-01  -.115256668155E-01  -.119823662208E-01  -.124466348101E-01  -.129175368215E-01
  -.133940120463E-01  -.138748684185E-01  -.143587746938E-01  -.148442532996E-01  -.153296734401E-01
  -.158132445397E-01  -.162930101020E-01  -.167668420468E-01  -.172324355615E-01  -.176873044813E-01
  -.181287771983E-01  -.185539931080E-01  -.189598996560E-01  -.193432501450E-01  -.197006026011E-01
  -.200283201458E-01  -.203225734403E-01  -.205793458279E-01  -.207944417579E-01  -.209634989388E-01
  -.210820044336E-01  -.211453146799E-01  -.211486792641E-01  -.210872682698E-01  -.209562031586E-01
  -.207505912987E-01  -.204655643897E-01  -.200963210707E-01  -.196381739710E-01  -.190866014052E-01
  -.184373038715E-01  -.176862654516E-01  -.168298202085E-01  -.158647236401E-01  -.147882292337E-01
  -.135981701247E-01  -.122930458207E-01  -.108721138744E-01  -.933548630985E-02  -.768423049319E-02
  -.592047401656E-02  -.404751300919E-02  -.206992312916E-02   .632769357795E-05   .217376587927E-02
   .442329948525E-02   .674410762278E-02   .912353360384E-02   .115469835057E-01   .139978318826E-01
   .164573363654E-01   .189045629349E-01   .213163238366E-01   .236671305955E-01   .259291655931E-01
   .280722773558E-01   .300640070404E-01   .318696559903E-01   .334524046955E-01   .347734875933E-01
   .357924091898E-01   .364671528404E-01   .367543041935E-01   .366090405688E-01   .359850695725E-01
   .348347696674E-01   .331097876801E-01   .307620590436E-01   .277449172263E-01   .240140391851E-01
   .195282648351E-01   .142504432654E-01   .814839612665E-02   .119601458121E-02  -.662552552065E-02
  -.153264509726E-01  -.249069967837E-01  -.353559375551E-01  -.466490453132E-01  -.587474712876E-01
  -.715960500907E-01  -.851215287968E-01  -.992307295180E-01  -.113808661076E+00  -.128716603384E+00
  -.143790196415E+00  -.158837574449E+00  -.173637594641E+00  -.187938189879E+00  -.201454951827E+00
  -.213870057321E+00  -.224831550372E+00  -.233953095768E+00  -.240814314597E+00  -.244961839509E+00
  -.245911257567E+00  -.243150159488E+00  -.236142568242E+00  -.224335072701E+00  -.207165023429E+00
  -.184071140432E+00  -.154506813466E+00  -.117956224883E+00  -.739531889722E-01  -.221023434668E-01
   .378977046855E-01   .106229011288E+00   .182924832400E+00   .267832907715E+00   .360570346316E+00
   .460474878409E+00   .566561190221E+00   .677488067534E+00   .791536818158E+00   .906600477991E+00
   .102018594637E+01   .112943373528E+01   .123116106947E+01   .132193398842E+01
 pseudo wavefunction
   .609936795591E-13   .671393456156E-13   .739042432306E-13   .813507655963E-13   .895475925842E-13
   .985703241856E-13   .108502177776E-12   .119434755636E-12   .131468889806E-12   .144715572067E-12
   .159296977631E-12   .175347591968E-12   .193015451176E-12   .212463507336E-12   .233871131425E-12
   .257435767672E-12   .283374754601E-12   .311927329564E-12   .343356835243E-12   .377953148482E-12
   .416035353843E-12   .457954686552E-12   .504097771965E-12   .554890191446E-12   .610800407541E-12
   .672344084640E-12   .740088844995E-12   .814659503942E-12   .896743832625E-12   .987098901365E-12
   .108655806218E-11   .119603863484E-11   .131655036741E-11   .144920474923E-11   .159522526223E-11
   .175595866526E-11   .193288741532E-11   .212764334038E-11   .234202268985E-11   .257800270157E-11
   .283775983797E-11   .312368985983E-11   .343842992248E-11   .378488289859E-11   .416624415152E-11
   .458603100641E-11   .504811519081E-11   .555675854385E-11   .611665232358E-11   .673296047476E-11
   .741136725635E-11   .815812966787E-11   .898013515820E-11   .988496514904E-11   .108809649590E-10
   .119773207730E-10   .131841443673E-10   .145125663711E-10   .159748389253E-10   .175844486848E-10
   .193562412070E-10   .213065578735E-10   .234533866080E-10   .258165277799E-10   .284177768254E-10
   .312811252674E-10   .344329819921E-10   .379024168193E-10   .417214286160E-10   .459252404242E-10
   .505526243255E-10   .556462590389E-10   .612531235496E-10   .674249303997E-10   .742186026365E-10
   .816967988179E-10   .899284909166E-10   .989896004533E-10   .108963698726E-09   .119942777594E-09
   .132028097926E-09   .145331123532E-09   .159974549206E-09   .176093432345E-09   .193836438593E-09
   .213367212993E-09   .234865889295E-09   .258530751341E-09   .284580061847E-09   .313254075454E-09
   .344817254608E-09   .379560708714E-09   .417804879050E-09   .459902494213E-09   .506241823355E-09
   .557250257203E-09   .613398249903E-09   .675203658040E-09   .743236516848E-09   .818124297662E-09
   .900557695112E-09   .991296997415E-09   .109117909853E-08   .120112521687E-08   .132214939168E-08
   .145536783557E-08   .160200922934E-08   .176342605410E-08   .194110706522E-08   .213669102312E-08
   .235198180751E-08   .258896505458E-08   .284982647044E-08   .313697198986E-08   .345304996609E-08
   .380097559650E-08   .418395780932E-08   .460552885939E-08   .506957690584E-08   .558038187232E-08
   .614265492035E-08   .676158189983E-08   .744287117757E-08   .819280628482E-08   .901830386941E-08
   .992697748686E-08   .109272078190E-07   .120282199671E-07   .132401685338E-07   .145742312757E-07
   .160427121939E-07   .176591550103E-07   .194384680771E-07   .213970618723E-07   .235530003477E-07
   .259261675260E-07   .285384508834E-07   .314139432085E-07   .345791647987E-07   .380633080437E-07
   .418985066513E-07   .461201319980E-07   .507671193372E-07   .558823268731E-07   .615129310111E-07
   .677108614295E-07   .745332799841E-07   .820431078609E-07   .903096058393E-07   .994090130128E-07
   .109425249860E-06   .120450692143E-06   .132587022778E-06   .145946169516E-06   .160651337093E-06
   .176838143362E-06   .194655869870E-06   .214268838423E-06   .235857926317E-06   .259622234206E-06
   .285780921984E-06   .314575229592E-06   .346270701388E-06   .381159634569E-06   .419563774209E-06
   .461837279761E-06   .508369990342E-06   .559591018894E-06   .615972708339E-06   .678034986168E-06
   .746350157589E-06   .821548181369E-06   .904322476983E-06   .995436316540E-06   .109572986035E-05
   .120612790090E-05   .132764838663E-05   .146141180376E-05   .160865150282E-05   .177072506466E-05
   .194912681072E-05   .214550157251E-05   .236165984715E-05   .259959447814E-05   .286149901503E-05
   .314978792052E-05   .346711881096E-05   .381641693451E-05   .420090211202E-05   .462411838784E-05
   .508996666326E-05   .560274061173E-05   .616716620593E-05   .678844521898E-05   .747230309904E-05
   .822504165615E-05   .905359704416E-05   .996560356893E-05   .109694639072E-04   .120744263787E-04
   .132906699782E-04   .146293979458E-04   .161029407288E-04   .177248692778E-04   .195101197083E-04
   .214751304666E-04   .236379932495E-04   .260186190518E-04   .286389208511E-04   .315230145936E-04
   .346974403018E-04   .381914053128E-04   .420370518500E-04   .462697513498E-04   .509284282032E-04
   .560559158351E-04   .616993483306E-04   .679105911320E-04   .747467146768E-04   .822705152235E-04
   .905510875284E-04   .996644544877E-04   .109694259360E-03   .120732526721E-03   .132880498908E-03
   .146249555345E-03   .160962222868E-03   .177153285932E-03   .194971006440E-03   .214578463835E-03
   .236155027138E-03   .259897971682E-03   .286024254500E-03   .314772463617E-03   .346404957917E-03
   .381210215777E-03   .419505412325E-03   .461639246982E-03   .507995044890E-03   .558994157914E-03
   .615099693218E-03   .676820599789E-03   .744716145959E-03   .819400823757E-03   .901549718936E-03
   .991904388715E-03   .109127929271E-02   .120056882610E-02   .132075500793E-02   .145291588146E-02
   .159823468759E-02   .175800987688E-02   .193366603007E-02   .212676576160E-02   .233902268553E-02
   .257231552750E-02   .282870347141E-02   .311044283363E-02   .342000516191E-02   .376009685957E-02
   .413368043916E-02   .454399751155E-02   .499459361812E-02   .548934501318E-02   .603248750239E-02
   .662864743843E-02   .728287496889E-02   .800067962124E-02   .878806829592E-02   .965158572007E-02
   .105983573899E-01   .116361349991E-01   .127733443109E-01   .140191353841E-01   .153834350030E-01
   .168770010896E-01   .185114787886E-01   .202994578140E-01   .222545305190E-01   .243913500094E-01
   .267256874452E-01   .292744874813E-01   .320559205619E-01   .350894305224E-01   .383957756462E-01
   .419970609788E-01   .459167593131E-01   .501797178223E-01   .548121468337E-01   .598415867033E-01
   .652968481705E-01   .712079209544E-01   .776058446899E-01   .845225356244E-01   .919905618030E-01
   .100042858797E+00   .108712377400E+00   .118031654174E+00   .128032295328E+00   .138744364195E+00
   .150195662702E+00   .162410897650E+00   .175410723648E+00   .189210656154E+00   .203819850530E+00
   .219239746460E+00   .235462581721E+00   .252469785387E+00   .270230268235E+00   .288698637736E+00
   .307813376627E+00   .327495037876E+00   .347644524883E+00   .368141543881E+00   .388843335427E+00
   .409583812907E+00   .430173257257E+00   .450398737000E+00   .470025439222E+00   .488799107384E+00
   .506449782265E+00   .522697028325E+00   .537256793837E+00   .549849993112E+00   .560212806151E+00
   .568108558319E+00   .573340864063E+00   .575767490291E+00   .575314116447E+00   .571986845242E+00
   .565881965030E+00   .557191108698E+00   .546199637325E+00   .533275861651E+00   .518848684152E+00
   .503371504986E+00   .487270910206E+00   .470879883794E+00   .454357516047E+00
 ae wavefunction
   .404782635920E-10   .443536761105E-10   .485569108718E-10   .531191839799E-10   .580744226023E-10
   .634595242630E-10   .693146390657E-10   .756834779177E-10   .826136482371E-10   .901570205592E-10
   .983701286117E-10   .107314606286E-09   .117057664842E-09   .127672614323E-09   .139239433732E-09
   .151845393340E-09   .165585736495E-09   .180564424024E-09   .196894949030E-09   .214701227400E-09
   .234118573689E-09   .255294766647E-09   .278391217287E-09   .303584246380E-09   .331066482363E-09
   .361048392843E-09   .393759960350E-09   .429452517502E-09   .468400757030E-09   .510904932381E-09
   .557293268829E-09   .607924603974E-09   .663191280775E-09   .723522317108E-09   .789386878603E-09
   .861298084354E-09   .939817177564E-09   .102555809661E-08   .111919248543E-08   .122145518590E-08
   .133315025909E-08   .145515758677E-08   .158844010994E-08   .173405176612E-08   .189314619385E-08
   .206698627913E-08   .225695462601E-08   .246456504177E-08   .269147513573E-08   .293950014064E-08
   .321062807662E-08   .350703638909E-08   .383111020304E-08   .418546235933E-08   .457295539426E-08
   .499672566847E-08   .546020984655E-08   .596717395915E-08   .652174530876E-08   .712844747770E-08
   .779223878344E-08   .851855446706E-08   .931335303477E-08   .101831671173E-07   .111351593234E-07
   .121771835615E-07   .133178523758E-07   .145666108840E-07   .159338179705E-07   .174308354518E-07
   .190701259868E-07   .208653606203E-07   .228315368767E-07   .249851084649E-07   .273441277372E-07
   .299284021465E-07   .327596660973E-07   .358617696983E-07   .392608860857E-07   .429857391403E-07
   .470678536221E-07   .515418299156E-07   .564456458258E-07   .618209880744E-07   .677136164303E-07
   .741737636893E-07   .812565750258E-07   .890225905958E-07   .975382756488E-07   .106876602828E-06
   .117117691731E-06   .128349511532E-06   .140668652602E-06   .154181174142E-06   .169003535174E-06
   .185263617106E-06   .203101846811E-06   .222672430183E-06   .244144706878E-06   .267704638197E-06
   .293556441111E-06   .321924382716E-06   .353054750890E-06   .387218018266E-06   .424711218463E-06
   .465860555296E-06   .511024267663E-06   .560595775057E-06   .615007131021E-06   .674732814456E-06
   .740293891732E-06   .812262585555E-06   .891267290008E-06   .977998075155E-06   .107321272848E-05
   .117774338519E-05   .129250380419E-05   .141849735219E-05   .155682576401E-05   .170869875405E-05
   .187544456051E-05   .205852151219E-05   .225953071569E-05   .248022997049E-05   .272254902908E-05
   .298860633081E-05   .328072734955E-05   .360146470920E-05   .395362023410E-05   .434026911906E-05
   .476478641790E-05   .523087607109E-05   .574260271052E-05   .630442650322E-05   .692124131892E-05
   .759841653277E-05   .834184280242E-05   .915798219022E-05   .100539230336E-04   .110374400047E-04
   .121170598376E-04   .133021332465E-04   .146029136034E-04   .160306429944E-04   .175976463279E-04
   .193174342285E-04   .212048155129E-04   .232760201130E-04   .255488333876E-04   .280427428440E-04
   .307790983776E-04   .337812872316E-04   .370749249804E-04   .406880639504E-04   .446514206060E-04
   .489986235579E-04   .537664839848E-04   .589952904036E-04   .647291298818E-04   .710162379484E-04
   .779093796411E-04   .854662643153E-04   .937499970449E-04   .102829569659E-03   .112780394688E-03
   .123684885744E-03   .135633088100E-03   .148723363531E-03   .163063133746E-03   .178769687064E-03
   .195971053280E-03   .214806952044E-03   .235429820382E-03   .258005925381E-03   .282716568449E-03
   .309759387923E-03   .339349767236E-03   .371722356276E-03   .407132713966E-03   .445859080574E-03
   .488204288676E-03   .534497822167E-03   .585098033123E-03   .640394526803E-03   .700810725479E-03
   .766806622204E-03   .838881736037E-03   .917578280576E-03   .100348455803E-02   .109723859129E-02
   .119953200670E-02   .131111418046E-02   .143279666151E-02   .156545788396E-02   .171004818169E-02
   .186759511797E-02   .203920914196E-02   .222608958402E-02   .242953100047E-02   .265092987802E-02
   .289179170649E-02   .315373842730E-02   .343851626353E-02   .374800393516E-02   .408422126111E-02
   .444933814666E-02   .484568395220E-02   .527575723551E-02   .574223585588E-02   .624798742439E-02
   .679608007930E-02   .738979356067E-02   .803263055224E-02   .872832825242E-02   .948087012944E-02
   .102944978088E-01   .111737230337E-01   .121233396318E-01   .131484354139E-01   .142544039256E-01
   .154469559618E-01   .167321307545E-01   .181163067325E-01   .196062117498E-01   .212089326650E-01
   .229319241376E-01   .247830164744E-01   .267704223049E-01   .289027417848E-01   .311889659211E-01
   .336384774916E-01   .362610489292E-01   .390668364888E-01   .420663700728E-01   .452705382633E-01
   .486905684090E-01   .523380019734E-01   .562246657017E-01   .603626393716E-01   .647642208795E-01
   .694418890558E-01   .744082640164E-01   .796760642635E-01   .852580593987E-01   .911670174192E-01
   .974156459001E-01   .104016526820E+00   .110982045053E+00   .118324310614E+00   .126055074705E+00
   .134185639503E+00   .142726761512E+00   .151688548377E+00   .161080349059E+00   .170910637435E+00
   .181186889583E+00   .191915455247E+00   .203101424202E+00   .214748488604E+00   .226858802678E+00
   .239432841530E+00   .252469261149E+00   .265964762054E+00   .279913959321E+00   .294309261795E+00
   .309140763202E+00   .324396147566E+00   .340060610375E+00   .356116795887E+00   .372544749460E+00
   .389321882434E+00   .406422946714E+00   .423820018024E+00   .441482492699E+00   .459377115216E+00
   .477468074365E+00   .495717234927E+00   .514084602425E+00   .532529126045E+00   .551009869391E+00
   .569487318632E+00   .587924093155E+00   .606283801268E+00   .624526988987E+00   .642604863570E+00
   .660454190184E+00   .677997620628E+00   .695150005880E+00   .711826045499E+00   .727944619489E+00
   .743429456132E+00   .758208250885E+00   .772211856992E+00   .785374084663E+00   .797632079899E+00
   .808927074874E+00   .819205275709E+00   .828418695141E+00   .836525811864E+00   .843492012363E+00
   .849289825573E+00   .853898987514E+00   .857306383141E+00   .859505907856E+00   .860498285705E+00
   .860290870349E+00   .858897446384E+00   .856338035328E+00   .852638567507E+00   .847830622844E+00
   .841951359292E+00   .835043226590E+00   .827153543260E+00   .818333906625E+00   .808639420901E+00
   .798127743137E+00   .786858003114E+00   .774889703063E+00   .762281757979E+00   .749091872958E+00
   .735376470955E+00   .721191364053E+00   .706593279350E+00   .691642125971E+00   .676403381380E+00
   .660949095052E+00   .645355114203E+00   .629692538026E+00   .614014758187E+00   .598346613068E+00
   .582683212788E+00   .566999174558E+00   .551261362399E+00   .535438229816E+00   .519503993105E+00
   .503439391545E+00   .487231157651E+00   .470871425482E+00   .454357516047E+00
 pseudo wavefunction
  -.258907987462E-13  -.284995313908E-13  -.313711174943E-13  -.345320419251E-13  -.380114581422E-13
  -.418414570796E-13  -.460573631241E-13  -.506980599142E-13  -.558063489678E-13  -.614293444434E-13
  -.676189076779E-13  -.744321255082E-13  -.819318367872E-13  -.901872119516E-13  -.992743909868E-13
  -.109277185672E-12  -.120287852581E-12  -.132407943976E-12  -.145749244428E-12  -.160434801819E-12
  -.176600062216E-12  -.194394119108E-12  -.213981088505E-12  -.235541622588E-12  -.259274575887E-12
  -.285398839324E-12  -.314155359066E-12  -.345809358792E-12  -.380652785867E-12  -.419007003999E-12
  -.461225757202E-12  -.507698432404E-12  -.558853650794E-12  -.615163221029E-12  -.677146490763E-12
  -.745375136631E-12  -.820478436869E-12  -.903149075192E-12  -.994149529480E-12  -.109431910416E-11
  -.120458167119E-11  -.132595419098E-11  -.145955609193E-11  -.160661959498E-11  -.176850107850E-11
  -.194669358823E-11  -.214284060784E-11  -.235875121681E-11  -.259641677578E-11  -.285802929301E-11
  -.314600164142E-11  -.346298981272E-11  -.381191741382E-11  -.419600263149E-11  -.461878791395E-11
  -.508417264309E-11  -.559644909884E-11  -.616034204714E-11  -.678105231684E-11  -.746430476732E-11
  -.821640108930E-11  -.904427792583E-11  -.995557084942E-11  -.109586847855E-10  -.120628715318E-10
  -.132783150879E-10  -.146162255839E-10  -.160889426710E-10  -.177100493323E-10  -.194944971586E-10
  -.214587442485E-10  -.236209070025E-10  -.260009272118E-10  -.286207559826E-10  -.315045561929E-10
  -.346789253485E-10  -.381731408929E-10  -.420194302358E-10  -.462532679881E-10  -.509137031466E-10
  -.560437192453E-10  -.616906307953E-10  -.679065196690E-10  -.747487154546E-10  -.822803242099E-10
  -.905708104930E-10  -.996966380376E-10  -.109741974982E-09  -.120799470156E-09  -.132971107586E-09
  -.146369147096E-09  -.161117159689E-09  -.177351167244E-09  -.195220897051E-09  -.214891162754E-09
  -.236543384428E-09  -.260377261827E-09  -.286612616217E-09  -.315491417791E-09  -.347280017367E-09
  -.382271602947E-09  -.420788903788E-09  -.463187166941E-09  -.509857433689E-09  -.561230146125E-09
  -.617779117113E-09  -.680025900252E-09  -.748544600161E-09  -.823967167421E-09  -.906989227039E-09
  -.998376494161E-09  -.109897183623E-08  -.120970304669E-08  -.133159140196E-08  -.146576108062E-08
  -.161344953153E-08  -.177601888678E-08  -.195496852443E-08  -.215194889708E-08  -.236877675379E-08
  -.260745189564E-08  -.287017561960E-08  -.315937102061E-08  -.347770533936E-08  -.382811456159E-08
  -.421383049603E-08  -.463841058044E-08  -.510577069090E-08  -.562022125665E-08  -.618650701377E-08
  -.680985076409E-08  -.749600154305E-08  -.825128764060E-08  -.908267496406E-08  -.999783128126E-08
  -.110051969362E-07  -.121140626896E-07  -.133346554016E-07  -.146782323475E-07  -.161571850356E-07
  -.177851534842E-07  -.195771520127E-07  -.215497077051E-07  -.237210128237E-07  -.261110925781E-07
  -.287419897955E-07  -.316379681963E-07  -.348257361482E-07  -.383346929617E-07  -.421971999977E-07
  -.464488790875E-07  -.511289410141E-07  -.562805470852E-07  -.619512071289E-07  -.681932175823E-07
  -.750641437098E-07  -.826273503959E-07  -.909525864058E-07  -.100116627496E-06  -.110203984304E-06
  -.121307681539E-06  -.133530115654E-06  -.146983998900E-06  -.161793398465E-06  -.178094880268E-06
  -.196038767940E-06  -.215790528603E-06  -.237532298192E-06  -.261464560384E-06  -.287807994589E-06
  -.316805510013E-06  -.348724484536E-06  -.383859229000E-06  -.422533699596E-06  -.465104483323E-06
  -.511964083971E-06  -.563544538885E-06  -.620321399771E-06  -.682818114150E-06  -.751610847776E-06
  -.827333792335E-06  -.910685007226E-06  -.100243284912E-05  -.110342304835E-05  -.121458649717E-05
  -.133694782138E-05  -.147163481404E-05  -.161988881779E-05  -.178307615117E-05  -.196270068356E-05
  -.216041767424E-05  -.237804900222E-05  -.261759992649E-05  -.288127753009E-05  -.317151101690E-05
  -.349097404673E-05  -.384260931298E-05  -.422965558744E-05  -.465567747924E-05  -.512459817952E-05
  -.564073549035E-05  -.620884146643E-05  -.683414603036E-05  -.752240495829E-05  -.827995267230E-05
  -.911376031858E-05  -.100314996586E-04  -.110416133518E-04  -.121533922665E-04  -.133770605169E-04
  -.147238689944E-04  -.162061982368E-04  -.178376715592E-04  -.196332794657E-04  -.216095164555E-04
  -.237845314490E-04  -.261782931775E-04  -.288127720112E-04  -.317121398422E-04  -.349029897954E-04
  -.384145777123E-04  -.422790875371E-04  -.465319229403E-04  -.512120277358E-04  -.563622378913E-04
  -.620296681953E-04  -.682661369337E-04  -.751286322392E-04  -.826798241226E-04  -.909886265614E-04
  -.100130814425E-03  -.110189700454E-03  -.121256877973E-03  -.133433035553E-03  -.146828850348E-03
  -.161565967469E-03  -.177778073375E-03  -.195612071946E-03  -.215229372653E-03  -.236807301010E-03
  -.260540642357E-03  -.286643330888E-03  -.315350296796E-03  -.346919485410E-03  -.381634063235E-03
  -.419804826900E-03  -.461772832154E-03  -.507912261233E-03  -.558633548075E-03  -.614386782120E-03
  -.675665412568E-03  -.743010276195E-03  -.817013972911E-03  -.898325614293E-03  -.987655971223E-03
  -.108578304750E-02  -.119355810681E-02  -.131191218055E-02  -.144186308390E-02  -.158452296679E-02
  -.174110642499E-02  -.191293919459E-02  -.210146745011E-02  -.230826772206E-02  -.253505744454E-02
  -.278370613600E-02  -.305624720723E-02  -.335489037890E-02  -.368203467696E-02  -.404028195620E-02
  -.443245088111E-02  -.486159126700E-02  -.533099865341E-02  -.584422894431E-02  -.640511290562E-02
  -.701777025831E-02  -.768662304389E-02  -.841640786762E-02  -.921218654089E-02  -.100793545480E-01
  -.110236466510E-01  -.120511388178E-01  -.131682455153E-01  -.143817112409E-01  -.156985949827E-01
  -.171262460884E-01  -.186722697926E-01  -.203444803960E-01  -.221508398124E-01  -.240993788985E-01
  -.261980986601E-01  -.284548480949E-01  -.308771750827E-01  -.334721463922E-01  -.362461325358E-01
  -.392045528997E-01  -.423515763170E-01  -.456897720704E-01  -.492197062365E-01  -.529394783588E-01
  -.568441937115E-01  -.609253669441E-01  -.651702537545E-01  -.695611084893E-01  -.740743673144E-01
  -.786797589136E-01  -.833393476665E-01  -.880065180070E-01  -.926249132635E-01  -.971273477850E-01
  -.101434717586E+00  -.105454942065E+00  -.109081977455E+00  -.112194951309E+00  -.114657476141E+00
  -.116317208788E+00  -.117005729288E+00  -.116538818062E+00  -.114717211571E+00  -.111327912662E+00
  -.106146120610E+00  -.989378251090E-01  -.894630759455E-01  -.774798936296E-01  -.627487243222E-01
  -.450372645862E-01  -.241253893159E-01   .190185820326E-03   .280919792163E-01   .597391170442E-01
   .952666223329E-01   .134787225743E+00   .178396189927E+00   .226179372647E+00   .278224280846E+00
   .334633134187E+00   .395535917803E+00   .461100041536E+00   .531532535912E+00
 ae wavefunction
  -.230380044710E-10  -.252436771998E-10  -.276359283757E-10  -.302325244988E-10  -.330527750585E-10
  -.361176801083E-10  -.394500908926E-10  -.430748852702E-10  -.470191587813E-10  -.513124332990E-10
  -.559868847313E-10  -.610775917205E-10  -.666228072421E-10  -.726642553665E-10  -.792474557720E-10
  -.864220779279E-10  -.942423291452E-10  -.102767378247E-09  -.112061819307E-09  -.122196178480E-09
  -.133247469422E-09  -.145299799727E-09  -.158445035730E-09  -.172783529587E-09  -.188424914889E-09
  -.205488978311E-09  -.224106613356E-09  -.244420864835E-09  -.266588072863E-09  -.290779125319E-09
  -.317180830125E-09  -.345997418070E-09  -.377452189370E-09  -.411789317603E-09  -.449275826265E-09
  -.490203754771E-09  -.534892532156E-09  -.583691578681E-09  -.636983157476E-09  -.695185500496E-09
  -.758756235481E-09  -.828196143213E-09  -.904053277245E-09  -.986927481417E-09  -.107747534396E-08
  -.117641563082E-08  -.128453524493E-08  -.140269576300E-08  -.153184060601E-08  -.167300290566E-08
  -.182731413478E-08  -.199601357685E-08  -.218045871521E-08  -.238213663674E-08  -.260267654138E-08
  -.284386347501E-08  -.310765340019E-08  -.339618973676E-08  -.371182152086E-08  -.405712332958E-08
  -.443491716764E-08  -.484829647879E-08  -.530065252084E-08  -.579570331209E-08  -.633752542021E-08
  -.693058886295E-08  -.757979543242E-08  -.829052077634E-08  -.906866060886E-08  -.992068145849E-08
  -.108536763936E-07  -.118754262300E-07  -.129944667439E-07  -.142201624924E-07  -.155627878936E-07
  -.170336162738E-07  -.186450176751E-07  -.204105662838E-07  -.223451584272E-07  -.244651421776E-07
  -.267884597159E-07  -.293348037010E-07  -.321257890363E-07  -.351851415387E-07  -.385389051825E-07
  -.422156697452E-07  -.462468208637E-07  -.506668147044E-07  -.555134796751E-07  -.608283478376E-07
  -.666570189115E-07  -.730495601685E-07  -.800609455953E-07  -.877515383206E-07  -.961876204862E-07
  -.105441975232E-06  -.115594525894E-06  -.126733038075E-06  -.138953890688E-06  -.152362922782E-06
  -.167076363535E-06  -.183221853559E-06  -.200939566496E-06  -.220383440624E-06  -.241722531283E-06
  -.265142495892E-06  -.290847224481E-06  -.319060629951E-06  -.350028613580E-06  -.384021222834E-06
  -.421335020205E-06  -.462295683557E-06  -.507260860412E-06  -.556623300861E-06  -.610814296015E-06
  -.670307451600E-06  -.735622829043E-06  -.807331489572E-06  -.886060480091E-06  -.972498303479E-06
  -.106740091979E-05  -.117159832938E-05  -.128600179379E-05  -.141161175536E-05  -.154952652249E-05
  -.170095179353E-05  -.186721109925E-05  -.204975725140E-05  -.225018489257E-05  -.247024425230E-05
  -.271185622285E-05  -.297712888007E-05  -.326837558468E-05  -.358813481337E-05  -.393919188143E-05
  -.432460273438E-05  -.474772000149E-05  -.521222152232E-05  -.572214157557E-05  -.628190506127E-05
  -.689636490869E-05  -.757084300769E-05  -.831117498699E-05  -.912375919186E-05  -.100156102446E-04
  -.109944176051E-04  -.120686095843E-04  -.132474233041E-04  -.145409811386E-04  -.159603742178E-04
  -.175177536246E-04  -.192264299701E-04  -.211009820873E-04  -.231573756490E-04  -.254130925790E-04
  -.278872722000E-04  -.306008651364E-04  -.335768010746E-04  -.368401715713E-04  -.404184291939E-04
  -.443416043804E-04  -.486425415135E-04  -.533571558171E-04  -.585247128104E-04  -.641881321807E-04
  -.703943180779E-04  -.771945179798E-04  -.846447124323E-04  -.928060381327E-04  -.101745246999E-03
  -.111535204047E-03  -.122255427094E-03  -.133992671496E-03  -.146841563348E-03  -.160905284785E-03
  -.176296315246E-03  -.193137232800E-03  -.211561579864E-03  -.231714797902E-03  -.253755235919E-03
  -.277855237852E-03  -.304202314160E-03  -.333000403235E-03  -.364471228442E-03  -.398855756888E-03
  -.436415766215E-03  -.477435525985E-03  -.522223600368E-03  -.571114779090E-03  -.624472143713E-03
  -.682689276474E-03  -.746192618972E-03  -.815443988065E-03  -.890943256293E-03  -.973231204105E-03
  -.106289255099E-02  -.116055917240E-02  -.126691350908E-02  -.138269217485E-02  -.150868976857E-02
  -.164576289515E-02  -.179483439975E-02  -.195689781836E-02  -.213302204673E-02  -.232435622836E-02
  -.253213486082E-02  -.275768311755E-02  -.300242238083E-02  -.326787597898E-02  -.355567511841E-02
  -.386756499854E-02  -.420541109433E-02  -.457120558791E-02  -.496707392724E-02  -.539528148560E-02
  -.585824029205E-02  -.635851579819E-02  -.689883364289E-02  -.748208637201E-02  -.811134006620E-02
  -.878984082637E-02  -.952102106282E-02  -.103085055305E-01  -.111561170494E-01  -.120678818415E-01
  -.130480344072E-01  -.141010218427E-01  -.152315074714E-01  -.164443736157E-01  -.177447232737E-01
  -.191378803999E-01  -.206293884263E-01  -.222250066328E-01  -.239307040083E-01  -.257526503400E-01
  -.276972044394E-01  -.297708996186E-01  -.319804267258E-01  -.343326151701E-01  -.368344123552E-01
  -.394928617374E-01  -.423150793895E-01  -.453082286129E-01  -.484794919401E-01  -.518360399327E-01
  -.553849963632E-01  -.591333996321E-01  -.630881604166E-01  -.672560155912E-01  -.716434784180E-01
  -.762567849726E-01  -.811018366732E-01  -.861841388391E-01  -.915087352032E-01  -.970801383929E-01
  -.102902256499E+00  -.108978316003E+00  -.115310781431E+00  -.121901272344E+00  -.128750478397E+00
  -.135858073447E+00  -.143222629881E+00  -.150841534502E+00  -.158710907507E+00  -.166825526120E+00
  -.175178754383E+00  -.183762480427E+00  -.192567062021E+00  -.201581280563E+00  -.210792302856E+00
  -.220185649225E+00  -.229745166336E+00  -.239453004094E+00  -.249289599352E+00  -.259233676122E+00
  -.269262283600E+00  -.279350909589E+00  -.289473723997E+00  -.299604010983E+00  -.309714805467E+00
  -.319779603146E+00  -.329772730416E+00  -.339668670296E+00  -.349439759942E+00  -.359052653101E+00
  -.368465456749E+00  -.377627918047E+00  -.386484948994E+00  -.394980876592E+00  -.403061823831E+00
  -.410676042105E+00  -.417773382620E+00  -.424304809941E+00  -.430222253269E+00  -.435478775668E+00
  -.440028942684E+00  -.443829258634E+00  -.446838563228E+00  -.449018323245E+00  -.450332795256E+00
  -.450749065440E+00  -.450236986900E+00  -.448769039945E+00  -.446320137584E+00  -.442867394935E+00
  -.438389874642E+00  -.432868315249E+00  -.426284841878E+00  -.418622587021E+00  -.409865320855E+00
  -.399997143912E+00  -.389002037648E+00  -.376863313085E+00  -.363562944182E+00  -.349080784411E+00
  -.333393674096E+00  -.316474473683E+00  -.298291077548E+00  -.278805477797E+00  -.257972944912E+00
  -.235741371040E+00  -.212050775479E+00  -.186832896483E+00  -.160010680105E+00  -.131497333817E+00
  -.101194526508E+00  -.689895222436E-01  -.347518006104E-01   .166922509858E-02   .404437335634E-01
   .817585954071E-01   .125814658628E+00   .172826537268E+00   .223024990033E+00   .276660669292E+00
   .334008332016E+00   .395371370720E+00   .461086992505E+00   .531532535912E+00
 End of Dataset
 PAW_PBE Fe 06Sep2000
 8.00000000000000000
 parameters from PSCTR are:
   VRHFIN =Fe:  d7 s1
   LEXCH  = PE
   EATOM  =   594.4687 eV,   43.6922 Ry

   TITEL  = PAW_PBE Fe 06Sep2000
   LULTRA =        F    use ultrasoft PP ?
   IUNSCR =        1    unscreen: 0-lin 1-nonlin 2-no
   RPACOR =    2.000    partial core radius
   POMASS =   55.847; ZVAL   =    8.000    mass and valenz
   RCORE  =    2.300    outmost cutoff radius
   RWIGS  =    2.460; RWIGS  =    1.302    wigner-seitz radius (au A)
   ENMAX  =  267.883; ENMIN  =  200.912 eV
   RCLOC  =    1.701    cutoff for local pot
   LCOR   =        T    correct aug charges
   LPAW   =        T    paw PP
   EAUG   =  511.368
   DEXC   =    -.022
   RMAX   =    2.817    core radius for proj-oper
   RAUG   =    1.300    factor for augmentation sphere
   RDEP   =    2.442    radius for radial grids
   QCUT   =   -4.437; QGAM   =    8.874    optimization parameters
 
   Description
     l     E      TYP  RCUT    TYP  RCUT
     2   .000     23  2.300
     2   .000     23  2.300
     0   .000     23  2.300
     0   .000     23  2.300
     1  -.200     23  2.300
     1   .000     23  2.300
     3   .000      7   .000
   Error from kinetic energy argument (eV)
   NDATA  =      100
   STEP   =   20.000   1.050
  97.7      96.4      95.6      94.1      93.3      91.6      89.9      88.9
  87.0      85.0      84.0      81.9      79.7      77.4      75.1      72.7
  70.3      67.9      65.4      61.7      59.2      56.6      52.9      50.4
  47.9      44.3      40.8      38.4      35.1      31.9      28.8      25.9
  23.2      20.6      18.2      16.0      13.3      11.5      9.41      8.01
  6.38      5.01      3.88      2.94      2.20      1.60      1.15      .727
  .490      .288      .162      .101      .573E-01  .367E-01  .282E-01  .268E-01
  .268E-01  .258E-01  .231E-01  .190E-01  .144E-01  .102E-01  .691E-02  .438E-02
  .323E-02  .271E-02  .262E-02  .260E-02  .239E-02  .203E-02  .152E-02  .106E-02
  .729E-03  .564E-03  .513E-03  .508E-03  .481E-03  .409E-03  .300E-03  .215E-03
  .160E-03  .144E-03  .142E-03  .131E-03  .105E-03  .764E-04  .571E-04  .504E-04
  .494E-04  .447E-04  .342E-04  .254E-04  .210E-04  .204E-04  .186E-04  .144E-04
  .107E-04  .960E-05  .924E-05  .776E-05
END of PSCTR-controll parameters
 local part
 81.2582175088937078
   .86360772E+02   .86347328E+02   .86306975E+02   .86239767E+02   .86145770E+02
   .86025081E+02   .85877820E+02   .85704132E+02   .85504188E+02   .85278179E+02
   .85026322E+02   .84748853E+02   .84446029E+02   .84118129E+02   .83765451E+02
   .83388314E+02   .82987056E+02   .82562038E+02   .82113638E+02   .81642258E+02
   .81148318E+02   .80632260E+02   .80094548E+02   .79535665E+02   .78956113E+02
   .78356416E+02   .77737115E+02   .77098769E+02   .76441955E+02   .75767265E+02
   .75075306E+02   .74366700E+02   .73642080E+02   .72902093E+02   .72147396E+02
   .71378656E+02   .70596551E+02   .69801765E+02   .68994992E+02   .68176933E+02
   .67348295E+02   .66509789E+02   .65662132E+02   .64806044E+02   .63942248E+02
   .63071467E+02   .62194427E+02   .61311849E+02   .60424455E+02   .59532964E+02
   .58638089E+02   .57740539E+02   .56841016E+02   .55940216E+02   .55038824E+02
   .54137520E+02   .53236970E+02   .52337833E+02   .51440753E+02   .50546364E+02
   .49655287E+02   .48768128E+02   .47885480E+02   .47007919E+02   .46136006E+02
   .45270286E+02   .44411286E+02   .43559514E+02   .42715462E+02   .41879602E+02
   .41052386E+02   .40234247E+02   .39425598E+02   .38626832E+02   .37838320E+02
   .37060413E+02   .36293442E+02   .35537717E+02   .34793525E+02   .34061133E+02
   .33340788E+02   .32632715E+02   .31937116E+02   .31254175E+02   .30584052E+02
   .29926888E+02   .29282803E+02   .28651896E+02   .28034246E+02   .27429912E+02
   .26838935E+02   .26261333E+02   .25697109E+02   .25146247E+02   .24608711E+02
   .24084450E+02   .23573396E+02   .23075462E+02   .22590548E+02   .22118538E+02
   .21659302E+02   .21212693E+02   .20778554E+02   .20356713E+02   .19946987E+02
   .19549180E+02   .19163085E+02   .18788487E+02   .18425160E+02   .18072869E+02
   .17731371E+02   .17400416E+02   .17079747E+02   .16769102E+02   .16468212E+02
   .16176807E+02   .15894609E+02   .15621339E+02   .15356716E+02   .15100457E+02
   .14852277E+02   .14611891E+02   .14379015E+02   .14153365E+02   .13934658E+02
   .13722615E+02   .13516957E+02   .13317412E+02   .13123708E+02   .12935580E+02
   .12752766E+02   .12575011E+02   .12402066E+02   .12233686E+02   .12069634E+02
   .11909680E+02   .11753602E+02   .11601184E+02   .11452218E+02   .11306506E+02
   .11163856E+02   .11024086E+02   .10887022E+02   .10752498E+02   .10620359E+02
   .10490457E+02   .10362654E+02   .10236820E+02   .10112836E+02   .99905904E+01
   .98699797E+01   .97509103E+01   .96332968E+01   .95170622E+01   .94021374E+01
   .92884613E+01   .91759807E+01   .90646493E+01   .89544284E+01   .88452858E+01
   .87371959E+01   .86301395E+01   .85241028E+01   .84190778E+01   .83150617E+01
   .82120561E+01   .81100673E+01   .80091054E+01   .79091840E+01   .78103201E+01
   .77125332E+01   .76158452E+01   .75202802E+01   .74258636E+01   .73326222E+01
   .72405835E+01   .71497755E+01   .70602264E+01   .69719643E+01   .68850165E+01
   .67994099E+01   .67151701E+01   .66323213E+01   .65508863E+01   .64708857E+01
   .63923385E+01   .63152612E+01   .62396677E+01   .61655696E+01   .60929755E+01
   .60218914E+01   .59523203E+01   .58842619E+01   .58177134E+01   .57526684E+01
   .56891178E+01   .56270493E+01   .55664476E+01   .55072947E+01   .54495693E+01
   .53932478E+01   .53383036E+01   .52847076E+01   .52324285E+01   .51814324E+01
   .51316836E+01   .50831442E+01   .50357746E+01   .49895337E+01   .49443788E+01
   .49002664E+01   .48571516E+01   .48149891E+01   .47737327E+01   .47333363E+01
   .46937533E+01   .46549373E+01   .46168424E+01   .45794229E+01   .45426341E+01
   .45064318E+01   .44707732E+01   .44356164E+01   .44009212E+01   .43666486E+01
   .43327613E+01   .42992241E+01   .42660032E+01   .42330672E+01   .42003866E+01
   .41679341E+01   .41356846E+01   .41036155E+01   .40717063E+01   .40399389E+01
   .40082976E+01   .39767689E+01   .39453418E+01   .39140075E+01   .38827595E+01
   .38515932E+01   .38205065E+01   .37894990E+01   .37585724E+01   .37277302E+01
   .36969775E+01   .36663213E+01   .36357697E+01   .36053327E+01   .35750210E+01
   .35448468E+01   .35148231E+01   .34849638E+01   .34552835E+01   .34257972E+01
   .33965205E+01   .33674692E+01   .33386590E+01   .33101058E+01   .32818254E+01
   .32538330E+01   .32261437E+01   .31987718E+01   .31717313E+01   .31450351E+01
   .31186955E+01   .30927239E+01   .30671306E+01   .30419249E+01   .30171150E+01
   .29927078E+01   .29687093E+01   .29451239E+01   .29219549E+01   .28992042E+01
   .28768725E+01   .28549592E+01   .28334623E+01   .28123787E+01   .27917038E+01
   .27714322E+01   .27515570E+01   .27320703E+01   .27129633E+01   .26942261E+01
   .26758479E+01   .26578173E+01   .26401218E+01   .26227484E+01   .26056838E+01
   .25889137E+01   .25724237E+01   .25561990E+01   .25402246E+01   .25244855E+01
   .25089663E+01   .24936518E+01   .24785272E+01   .24635775E+01   .24487883E+01
   .24341453E+01   .24196350E+01   .24052441E+01   .23909600E+01   .23767709E+01
   .23626655E+01   .23486332E+01   .23346644E+01   .23207502E+01   .23068826E+01
   .22930542E+01   .22792589E+01   .22654913E+01   .22517467E+01   .22380217E+01
   .22243136E+01   .22106204E+01   .21969413E+01   .21832761E+01   .21696257E+01
   .21559915E+01   .21423757E+01   .21287813E+01   .21152120E+01   .21016720E+01
   .20881659E+01   .20746992E+01   .20612774E+01   .20479067E+01   .20345934E+01
   .20213442E+01   .20081659E+01   .19950654E+01   .19820498E+01   .19691262E+01
   .19563016E+01   .19435828E+01   .19309767E+01   .19184898E+01   .19061285E+01
   .18938986E+01   .18818060E+01   .18698558E+01   .18580528E+01   .18464014E+01
   .18349056E+01   .18235685E+01   .18123930E+01   .18013814E+01   .17905353E+01
   .17798557E+01   .17693434E+01   .17589980E+01   .17488192E+01   .17388056E+01
   .17289555E+01   .17192667E+01   .17097363E+01   .17003612E+01   .16911375E+01
   .16820610E+01   .16731272E+01   .16643311E+01   .16556673E+01   .16471302E+01
   .16387139E+01   .16304122E+01   .16222189E+01   .16141275E+01   .16061315E+01
   .15982242E+01   .15903990E+01   .15826494E+01   .15749688E+01   .15673509E+01
   .15597893E+01   .15522780E+01   .15448111E+01   .15373829E+01   .15299880E+01
   .15226215E+01   .15152785E+01   .15079546E+01   .15006459E+01   .14933485E+01
   .14860594E+01   .14787755E+01   .14714947E+01   .14642147E+01   .14569341E+01
   .14496518E+01   .14423671E+01   .14350796E+01   .14277896E+01   .14204975E+01
   .14132042E+01   .14059110E+01   .13986195E+01   .13913317E+01   .13840497E+01
   .13767762E+01   .13695139E+01   .13622658E+01   .13550351E+01   .13478252E+01
   .13406397E+01   .13334823E+01   .13263567E+01   .13192666E+01   .13122161E+01
   .13052089E+01   .12982488E+01   .12913396E+01   .12844850E+01   .12776885E+01
   .12709534E+01   .12642832E+01   .12576808E+01   .12511490E+01   .12446906E+01
   .12383079E+01   .12320031E+01   .12257780E+01   .12196343E+01   .12135733E+01
   .12075961E+01   .12017033E+01   .11958954E+01   .11901726E+01   .11845346E+01
   .11789810E+01   .11735110E+01   .11681236E+01   .11628173E+01   .11575906E+01
   .11524417E+01   .11473683E+01   .11423681E+01   .11374386E+01   .11325771E+01
   .11277806E+01   .11230460E+01   .11183702E+01   .11137498E+01   .11091813E+01
   .11046614E+01   .11001864E+01   .10957528E+01   .10913569E+01   .10869952E+01
   .10826642E+01   .10783602E+01   .10740799E+01   .10698200E+01   .10655771E+01
   .10613483E+01   .10571305E+01   .10529210E+01   .10487171E+01   .10445164E+01
   .10403168E+01   .10361161E+01   .10319126E+01   .10277048E+01   .10234912E+01
   .10192707E+01   .10150425E+01   .10108059E+01   .10065605E+01   .10023062E+01
   .99804289E+00   .99377101E+00   .98949101E+00   .98520365E+00   .98090985E+00
   .97661076E+00   .97230772E+00   .96800223E+00   .96369597E+00   .95939076E+00
   .95508855E+00   .95079142E+00   .94650154E+00   .94222117E+00   .93795265E+00
   .93369835E+00   .92946070E+00   .92524215E+00   .92104514E+00   .91687211E+00
   .91272549E+00   .90860764E+00   .90452089E+00   .90046748E+00   .89644957E+00
   .89246922E+00   .88852838E+00   .88462885E+00   .88077232E+00   .87696030E+00
   .87319416E+00   .86947510E+00   .86580414E+00   .86218211E+00   .85860966E+00
   .85508728E+00   .85161524E+00   .84819363E+00   .84482235E+00   .84150112E+00
   .83822948E+00   .83500675E+00   .83183213E+00   .82870459E+00   .82562296E+00
   .82258591E+00   .81959196E+00   .81663945E+00   .81372664E+00   .81085162E+00
   .80801240E+00   .80520689E+00   .80243289E+00   .79968818E+00   .79697043E+00
   .79427731E+00   .79160645E+00   .78895546E+00   .78632195E+00   .78370357E+00
   .78109797E+00   .77850284E+00   .77591595E+00   .77333510E+00   .77075820E+00
   .76818322E+00   .76560826E+00   .76303151E+00   .76045130E+00   .75786606E+00
   .75527442E+00   .75267509E+00   .75006700E+00   .74744919E+00   .74482090E+00
   .74218152E+00   .73953062E+00   .73686793E+00   .73419337E+00   .73150700E+00
   .72880907E+00   .72609997E+00   .72338027E+00   .72065068E+00   .71791207E+00
   .71516542E+00   .71241189E+00   .70965274E+00   .70688934E+00   .70412319E+00
   .70135589E+00   .69858909E+00   .69582457E+00   .69306412E+00   .69030962E+00
   .68756296E+00   .68482606E+00   .68210086E+00   .67938927E+00   .67669322E+00
   .67401457E+00   .67135517E+00   .66871680E+00   .66610118E+00   .66350995E+00
   .66094469E+00   .65840685E+00   .65589780E+00   .65341878E+00   .65097093E+00
   .64855524E+00   .64617257E+00   .64382366E+00   .64150906E+00   .63922922E+00
   .63698438E+00   .63477467E+00   .63260005E+00   .63046031E+00   .62835510E+00
   .62628392E+00   .62424612E+00   .62224091E+00   .62026736E+00   .61832442E+00
   .61641091E+00   .61452553E+00   .61266690E+00   .61083350E+00   .60902375E+00
   .60723599E+00   .60546848E+00   .60371943E+00   .60198699E+00   .60026928E+00
   .59856441E+00   .59687046E+00   .59518554E+00   .59350774E+00   .59183520E+00
   .59016609E+00   .58849864E+00   .58683113E+00   .58516193E+00   .58348947E+00
   .58181229E+00   .58012902E+00   .57843839E+00   .57673926E+00   .57503059E+00
   .57331149E+00   .57158119E+00   .56983904E+00   .56808454E+00   .56631734E+00
   .56453722E+00   .56274412E+00   .56093809E+00   .55911936E+00   .55728829E+00
   .55544535E+00   .55359119E+00   .55172655E+00   .54985229E+00   .54796940E+00
   .54607898E+00   .54418219E+00   .54228032E+00   .54037472E+00   .53846680E+00
   .53655804E+00   .53464997E+00   .53274415E+00   .53084218E+00   .52894568E+00
   .52705625E+00   .52517553E+00   .52330510E+00   .52144654E+00   .51960140E+00
   .51777115E+00   .51595724E+00   .51416103E+00   .51238379E+00   .51062673E+00
   .50889096E+00   .50717747E+00   .50548717E+00   .50382083E+00   .50217911E+00
   .50056258E+00   .49897164E+00   .49740660E+00   .49586763E+00   .49435477E+00
   .49286793E+00   .49140691E+00   .48997137E+00   .48856084E+00   .48717476E+00
   .48581243E+00   .48447304E+00   .48315568E+00   .48185933E+00   .48058291E+00
   .47932522E+00   .47808501E+00   .47686095E+00   .47565166E+00   .47445572E+00
   .47327166E+00   .47209799E+00   .47093321E+00   .46977581E+00   .46862426E+00
   .46747707E+00   .46633277E+00   .46518989E+00   .46404704E+00   .46290284E+00
   .46175599E+00   .46060524E+00   .45944943E+00   .45828747E+00   .45711836E+00
   .45594118E+00   .45475512E+00   .45355948E+00   .45235367E+00   .45113718E+00
   .44990965E+00   .44867081E+00   .44742052E+00   .44615873E+00   .44488553E+00
   .44360109E+00   .44230572E+00   .44099980E+00   .43968385E+00   .43835846E+00
   .43702432E+00   .43568220E+00   .43433297E+00   .43297757E+00   .43161700E+00
   .43025232E+00   .42888467E+00   .42751519E+00   .42614511E+00   .42477565E+00
   .42340806E+00   .42204360E+00   .42068354E+00   .41932911E+00   .41798157E+00
   .41664212E+00   .41531193E+00   .41399216E+00   .41268389E+00   .41138816E+00
   .41010595E+00   .40883817E+00   .40758567E+00   .40634921E+00   .40512948E+00
   .40392707E+00   .40274249E+00   .40157616E+00   .40042840E+00   .39929943E+00
   .39818938E+00   .39709827E+00   .39602603E+00   .39497249E+00   .39393740E+00
   .39292040E+00   .39192106E+00   .39093883E+00   .38997314E+00   .38902328E+00
   .38808852E+00   .38716804E+00   .38626097E+00   .38536637E+00   .38448329E+00
   .38361069E+00   .38274754E+00   .38189275E+00   .38104523E+00   .38020386E+00
   .37936754E+00   .37853514E+00   .37770555E+00   .37687771E+00   .37605053E+00
   .37522299E+00   .37439410E+00   .37356291E+00   .37272850E+00   .37189005E+00
   .37104677E+00   .37019792E+00   .36934285E+00   .36848098E+00   .36761179E+00
   .36673485E+00   .36584980E+00   .36495635E+00   .36405430E+00   .36314355E+00
   .36222404E+00   .36129583E+00   .36035904E+00   .35941387E+00   .35846062E+00
   .35749963E+00   .35653133E+00   .35555622E+00   .35457485E+00   .35358783E+00
   .35259584E+00   .35159958E+00   .35059981E+00   .34959734E+00   .34859298E+00
   .34758758E+00   .34658201E+00   .34557717E+00   .34457395E+00   .34357324E+00
   .34257595E+00   .34158296E+00   .34059514E+00   .33961335E+00   .33863842E+00
   .33767114E+00   .33671228E+00   .33576255E+00   .33482263E+00   .33389312E+00
   .33297462E+00   .33206761E+00   .33117256E+00   .33028985E+00   .32941980E+00
   .32856268E+00   .32771869E+00   .32688793E+00   .32607049E+00   .32526635E+00
   .32447544E+00   .32369762E+00   .32293270E+00   .32218040E+00   .32144040E+00
   .32071232E+00   .31999572E+00   .31929011E+00   .31859493E+00   .31790960E+00
   .31723350E+00   .31656596E+00   .31590629E+00   .31525376E+00   .31460762E+00
   .31396713E+00   .31333151E+00   .31269997E+00   .31207175E+00   .31144606E+00
   .31082214E+00   .31019922E+00   .30957657E+00   .30895345E+00   .30832919E+00
   .30770310E+00   .30707455E+00   .30644295E+00   .30580774E+00   .30516841E+00
   .30452449E+00   .30387556E+00   .30322128E+00   .30256132E+00   .30189544E+00
   .30122345E+00   .30054520E+00   .29986061E+00   .29916966E+00   .29847237E+00
   .29776885E+00   .29705922E+00   .29634367E+00   .29562246E+00   .29489587E+00
   .29416424E+00   .29342797E+00   .29268747E+00   .29194321E+00   .29119570E+00
   .29044547E+00   .28969309E+00   .28893914E+00   .28818424E+00   .28742901E+00
   .28667409E+00   .28592012E+00   .28516775E+00   .28441762E+00   .28367038E+00
   .28292664E+00   .28218704E+00   .28145217E+00   .28072261E+00   .27999891E+00
   .27928159E+00   .27857117E+00   .27786810E+00   .27717281E+00   .27648568E+00
   .27580708E+00   .27513730E+00   .27447660E+00   .27382519E+00   .27318325E+00
   .27255087E+00   .27192813E+00   .27131503E+00   .27071155E+00   .27011760E+00
   .26953305E+00   .26895771E+00   .26839137E+00   .26783376E+00   .26728458E+00
   .26674347E+00   .26621006E+00   .26568392E+00   .26516462E+00   .26465168E+00
   .26414459E+00   .26364283E+00   .26314585E+00   .26265309E+00   .26216398E+00
   .26167794E+00   .26119439E+00   .26071273E+00   .26023239E+00   .25975280E+00
   .25927339E+00   .25879361E+00   .25831294E+00   .25783087E+00   .25734692E+00
   .25686063E+00   .25637158E+00   .25587938E+00   .25538365E+00   .25488409E+00
   .25438041E+00   .25387235E+00   .25335972E+00   .25284234E+00   .25232011E+00
   .25179294E+00   .25126081E+00   .25072372E+00   .25018173E+00   .24963495E+00
   .24908351E+00   .24852760E+00   .24796745E+00   .24740332E+00   .24683549E+00
   .24626431E+00   .24569012E+00   .24511332E+00   .24453432E+00   .24395355E+00
   .24337145E+00   .24278852E+00   .24220521E+00   .24162204E+00   .24103950E+00
   .24045809E+00   .23987832E+00   .23930070E+00   .23872572E+00   .23815387E+00
   .23758562E+00   .23702143E+00   .23646174E+00   .23590697E+00   .23535749E+00
   .23481368E+00   .23427586E+00   .23374434E+00   .23321937E+00   .23270120E+00
   .23219001E+00   .23168596E+00   .23118918E+00   .23069974E+00   .23021769E+00
   .22974303E+00   .22927572E+00   .22881569E+00   .22836282E+00   .22791697E+00
   .22747794E+00   .22704552E+00   .22661943E+00   .22619940E+00   .22578510E+00
   .22537619E+00   .22497229E+00   .22457302E+00   .22417795E+00   .22378667E+00
   .22339873E+00   .22301368E+00   .22263106E+00   .22225042E+00   .22187129E+00
   .22149321E+00   .22111572E+00   .22073838E+00   .22036074E+00   .21998237E+00
 gradient corrections used for XC
 5
 core charge-density (partial)
   .19697028E+01   .19688409E+01   .19662575E+01   .19619590E+01   .19559565E+01
   .19482650E+01   .19389042E+01   .19278975E+01   .19152726E+01   .19010611E+01
   .18852983E+01   .18680233E+01   .18492785E+01   .18291098E+01   .18075661E+01
   .17846992E+01   .17605637E+01   .17352167E+01   .17087173E+01   .16811270E+01
   .16525089E+01   .16229277E+01   .15924494E+01   .15611411E+01   .15290706E+01
   .14963066E+01   .14629179E+01   .14289734E+01   .13945420E+01   .13596924E+01
   .13244924E+01   .12890095E+01   .12533099E+01   .12174589E+01   .11815202E+01
   .11455563E+01   .11096280E+01   .10737942E+01   .10381121E+01   .10026366E+01
   .96742054E+00   .93251465E+00   .89796717E+00   .86382399E+00   .83012851E+00
   .79692162E+00   .76424165E+00   .73212433E+00   .70060280E+00   .66970757E+00
   .63946656E+00   .60990509E+00   .58104588E+00   .55290914E+00   .52551257E+00
   .49887138E+00   .47299842E+00   .44790418E+00   .42359684E+00   .40008242E+00
   .37736477E+00   .35544571E+00   .33432509E+00   .31400087E+00   .29446922E+00
   .27572461E+00   .25775992E+00   .24056650E+00   .22413430E+00   .20845194E+00
   .19350683E+00   .17928525E+00   .16577243E+00   .15295270E+00   .14080950E+00
   .12932557E+00   .11848293E+00   .10826305E+00   .98646913E-01   .89615069E-01
   .81147747E-01   .73224912E-01   .65826347E-01   .58931720E-01   .52520647E-01
   .46572759E-01   .41067761E-01   .35985487E-01   .31305953E-01   .27009405E-01
   .23076368E-01   .19487685E-01   .16224556E-01   .13268575E-01   .10601761E-01
   .82065876E-02   .60660083E-02   .41634782E-02   .24829745E-02   .10090127E-02
  -.27333932E-03  -.13784503E-02  -.23201173E-02  -.31115593E-02  -.37654139E-02
  -.42937354E-02  -.47079959E-02  -.50190877E-02  -.52373275E-02  -.53724635E-02
  -.54336820E-02  -.54296177E-02  -.53683641E-02  -.52574851E-02  -.51040283E-02
  -.49145391E-02  -.46950754E-02  -.44512235E-02  -.41881144E-02  -.39104407E-02
  -.36224742E-02  -.33280835E-02  -.30307525E-02  -.27335980E-02  -.24393888E-02
  -.21505637E-02  -.18692501E-02  -.15972823E-02  -.13362196E-02  -.10873640E-02
  -.85177821E-03  -.63030271E-03  -.42357252E-03  -.23203383E-03  -.55959926E-04
   .10453333E-03   .24947254E-03   .37901234E-03   .49342163E-03   .59307033E-03
   .67841677E-03   .74999570E-03   .80840696E-03   .85430476E-03   .88838761E-03
   .91138885E-03   .92406789E-03   .92720205E-03   .92157895E-03   .90798961E-03
   .88722212E-03   .86005583E-03   .82725619E-03   .78957014E-03   .74772190E-03
   .70240948E-03   .65430150E-03   .60403455E-03   .55221102E-03   .49939733E-03
   .44612251E-03   .39287725E-03   .34011324E-03   .28824280E-03   .23763895E-03
   .18863559E-03   .14152807E-03   .96573895E-04   .53993738E-04   .13972534E-04
  -.23339179E-04  -.57823816E-04  -.89395162E-04  -.11799669E-03  -.14359980E-03
  -.16620195E-03  -.18582483E-03  -.20251238E-03  -.21632887E-03  -.22735698E-03
  -.23569583E-03  -.24145908E-03  -.24477304E-03  -.24577484E-03  -.24461061E-03
  -.24143379E-03  -.23640343E-03  -.22968264E-03  -.22143703E-03  -.21183335E-03
  -.20103807E-03  -.18921623E-03  -.17653021E-03  -.16313871E-03  -.14919580E-03
  -.13485000E-03  -.12024361E-03  -.10551193E-03  -.90782766E-04  -.76175878E-04
  -.61802630E-04  -.47765649E-04  -.34158606E-04  -.21066060E-04  -.85633844E-05
   .32832375E-05   .14416752E-04   .24789109E-04   .34361083E-04   .43102036E-04
   .50989634E-04   .58009526E-04   .64154975E-04   .69426462E-04   .73831262E-04
   .77382988E-04   .80101127E-04   .82010550E-04   .83141016E-04   .83526672E-04
   .83205542E-04   .82219025E-04   .80611391E-04   .78429290E-04   .75721264E-04
   .72537282E-04   .68928279E-04   .64945728E-04   .60641215E-04   .56066049E-04
   .51270894E-04   .46305415E-04   .41217967E-04   .36055294E-04   .30862269E-04
   .25681653E-04   .20553883E-04   .15516895E-04   .10605965E-04   .58535842E-05
   .12893582E-05  -.30600659E-05  -.71710491E-05  -.11022984E-04  -.14598295E-04
  -.17882418E-04  -.20863758E-04  -.23533627E-04  -.25886163E-04  -.27918236E-04
  -.29629334E-04  -.31021440E-04  -.32098893E-04  -.32868241E-04  -.33338086E-04
  -.33518915E-04  -.33422937E-04  -.33063907E-04  -.32456943E-04  -.31618357E-04
  -.30565470E-04  -.29316435E-04  -.27890065E-04  -.26305658E-04  -.24582830E-04
  -.22741357E-04  -.20801014E-04  -.18781431E-04  -.16701949E-04  -.14581494E-04
  -.12438448E-04  -.10290540E-04  -.81547405E-05  -.60471718E-05  -.39830216E-05
  -.19764732E-05  -.40643817E-07   .18124668E-05   .35720162E-05   .52283501E-05
   .67730217E-05   .81988031E-05   .94996853E-05   .10670871E-04   .11708759E-04
   .12610917E-04   .13376052E-04   .14003971E-04   .14495534E-04   .14852607E-04
   .15077999E-04   .15175408E-04   .15149352E-04   .15005101E-04   .14748608E-04
   .14386437E-04   .13925684E-04   .13373908E-04   .12739050E-04   .12029364E-04
   .11253336E-04   .10419616E-04   .95369438E-05   .86140829E-05   .76597516E-05
   .66825604E-05   .56909524E-05   .46931466E-05   .36970852E-05   .27103854E-05
   .17402956E-05   .79365494E-06  -.12314093E-06  -.10041708E-05  -.18440137E-05
  -.26377696E-05  -.33810764E-05  -.40701215E-05  -.47016492E-05  -.52729639E-05
  -.57819286E-05  -.62269599E-05  -.66070187E-05  -.69215975E-05  -.71707042E-05
  -.73548425E-05  -.74749900E-05  -.75325727E-05  -.75294384E-05  -.74678267E-05
  -.73503379E-05  -.71799006E-05  -.69597375E-05  -.66933310E-05  -.63843872E-05
  -.60368003E-05  -.56546171E-05  -.52420009E-05  -.48031960E-05  -.43424939E-05
  -.38641988E-05  -.33725955E-05  -.28719179E-05  -.23663193E-05  -.18598442E-05
  -.13564022E-05  -.85974295E-06  -.37343462E-06   .99157053E-07   .55488651E-06
   .99084428E-06   .14043705E-05   .17930661E-05   .21548018E-05   .24877246E-05
   .27902624E-05   .30611260E-05   .32993088E-05   .35040852E-05   .36750064E-05
   .38118940E-05   .39148329E-05   .39841614E-05   .40204600E-05   .40245396E-05
   .39974274E-05   .39403522E-05   .38547282E-05   .37421391E-05   .36043200E-05
   .34431397E-05   .32605827E-05   .30587301E-05   .28397415E-05   .26058359E-05
   .23592734E-05   .21023371E-05   .18373153E-05   .15664841E-05   .12920911E-05
   .10163392E-05   .74137207E-06   .46925956E-06   .20198490E-06  -.58567417E-07
  -.31062261E-06  -.55252539E-06  -.78274854E-06  -.99990031E-06  -.12027306E-05
  -.13901358E-05  -.15611625E-05  -.17150103E-05  -.18510323E-05  -.19687359E-05
  -.20677816E-05  -.21479805E-05  -.22092915E-05  -.22518170E-05  -.22757977E-05
  -.22816068E-05  -.22697429E-05  -.22408227E-05  -.21955732E-05  -.21348221E-05
  -.20594897E-05  -.19705784E-05  -.18691633E-05  -.17563816E-05  -.16334228E-05
  -.15015180E-05  -.13619294E-05  -.12159403E-05  -.10648445E-05  -.90993684E-06
  -.75250303E-06  -.59381070E-06  -.43510029E-06  -.27757665E-06  -.12240108E-06
   .29316083E-07   .17652226E-06   .31822883E-06   .45351665E-06   .58154098E-06
   .70153558E-06   .81281627E-06   .91478365E-06   .10069252E-05   .10888167E-05
   .11601227E-05   .12205969E-05   .12700812E-05   .13085043E-05   .13358804E-05
   .13523061E-05   .13579575E-05   .13530870E-05   .13380192E-05   .13131463E-05
   .12789235E-05   .12358637E-05   .11845325E-05   .11255419E-05   .10595454E-05
   .98723085E-06   .90931548E-06   .82653907E-06   .73965809E-06   .64943959E-06
   .55665516E-06   .46207510E-06   .36646269E-06   .27056870E-06   .17512613E-06
   .80845196E-07  -.11591321E-07  -.10153247E-06  -.18836312E-06  -.27150761E-06
  -.35043303E-06  -.42465201E-06  -.49372522E-06  -.55726336E-06  -.61492879E-06
  -.66643667E-06  -.71155572E-06  -.75010860E-06  -.78197178E-06  -.80707513E-06
  -.82540104E-06  -.83698322E-06  -.84190514E-06  -.84029810E-06  -.83233911E-06
  -.81824834E-06  -.79828642E-06  -.77275147E-06  -.74197593E-06  -.70632322E-06
  -.66618424E-06  -.62197382E-06  -.57412694E-06  -.52309509E-06  -.46934240E-06
  -.41334195E-06  -.35557195E-06  -.29651210E-06  -.23663997E-06  -.17642747E-06
  -.11633751E-06  -.56820724E-07   .16875313E-08   .58770088E-07   .11403062E-06
   .16709607E-06   .21761890E-06   .26527903E-06   .30978558E-06   .35087831E-06
   .38832884E-06   .42194158E-06   .45155439E-06   .47703901E-06   .49830117E-06
   .51528052E-06   .52795025E-06   .53631649E-06   .54041749E-06   .54032259E-06
   .53613094E-06   .52797007E-06   .51599428E-06   .50038286E-06   .48133816E-06
   .45908353E-06   .43386121E-06   .40593005E-06   .37556320E-06   .34304574E-06
   .30867229E-06   .27274459E-06   .23556910E-06   .19745456E-06   .15870972E-06
   .11964096E-06   .80550091E-07   .41732229E-07   .34737242E-08  -.33949764E-07
  -.70275079E-07  -.10525324E-06  -.13865099E-06  -.17025216E-06  -.19985890E-06
  -.22729276E-06  -.25239555E-06  -.27503010E-06  -.29508078E-06  -.31245390E-06
  -.32707792E-06  -.33890347E-06  -.34790325E-06  -.35407173E-06  -.35742472E-06
  -.35799877E-06  -.35585043E-06  -.35105543E-06  -.34370765E-06  -.33391803E-06
  -.32181342E-06  -.30753520E-06  -.29123798E-06  -.27308814E-06  -.25326233E-06
  -.23194593E-06  -.20933148E-06  -.18561710E-06  -.16100488E-06  -.13569930E-06
  -.10990565E-06  -.83828480E-07  -.57670101E-07  -.31629114E-07  -.58990177E-08
   .19333128E-07   .43887960E-07   .67594983E-07   .90293651E-07   .11183436E-06
   .13207932E-06   .15090334E-06   .16819452E-06   .18385473E-06   .19780016E-06
   .20996155E-06   .22028447E-06   .22872935E-06   .23527155E-06   .23990115E-06
   .24262277E-06   .24345522E-06   .24243107E-06   .23959611E-06   .23500875E-06
   .22873933E-06   .22086933E-06   .21149056E-06   .20070425E-06   .18862009E-06
   .17535527E-06   .16103344E-06   .14578365E-06   .12973929E-06   .11303701E-06
   .95815619E-07   .78215018E-07   .60375141E-07   .42434904E-07   .24531193E-07
   .67978821E-08  -.10635102E-07  -.27642671E-07  -.44105405E-07  -.59910340E-07
  -.74951671E-07  -.89131404E-07  -.10235993E-06  -.11455653E-06  -.12564980E-06
  -.13557799E-06  -.14428928E-06  -.15174199E-06  -.15790467E-06  -.16275612E-06
  -.16628539E-06  -.16849163E-06  -.16938391E-06  -.16898095E-06  -.16731080E-06
  -.16441047E-06  -.16032543E-06  -.15510918E-06  -.14882261E-06  -.14153348E-06
  -.13331575E-06  -.12424890E-06  -.11441724E-06  -.10390921E-06  -.92816624E-07
  -.81233903E-07  -.69257358E-07  -.56984414E-07  -.44512870E-07  -.31940157E-07
  -.19362628E-07  -.68748505E-08   .54310567E-08   .17466069E-07   .29144858E-07
   .40386361E-07   .51114303E-07   .61257676E-07   .70751171E-07   .79535557E-07
   .87558010E-07   .94772385E-07   .10113944E-06   .10662700E-06   .11121007E-06
   .11487086E-06   .11759884E-06   .11939063E-06   .12024992E-06   .12018731E-06
   .11922012E-06   .11737208E-06   .11467312E-06   .11115897E-06   .10687080E-06
   .10185484E-06   .96161927E-07   .89847019E-07   .82968754E-07   .75588918E-07
   .67771935E-07   .59584342E-07   .51094248E-07   .42370807E-07   .33483675E-07
   .24502490E-07   .15496345E-07   .65332908E-08  -.23201588E-08  -.10999493E-07
  -.19442647E-07  -.27590427E-07  -.35386894E-07  -.42779726E-07  -.49720548E-07
  -.56165213E-07  -.62074066E-07  -.67412157E-07  -.72149418E-07  -.76260801E-07
  -.79726378E-07  -.82531401E-07  -.84666320E-07  -.86126762E-07  -.86913475E-07
  -.87032234E-07  -.86493710E-07  -.85313303E-07  -.83510950E-07  -.81110894E-07
  -.78141430E-07  -.74634625E-07  -.70626013E-07  -.66154270E-07  -.61260873E-07
  -.55989744E-07  -.50386876E-07  -.44499959E-07  -.38377995E-07  -.32070907E-07
  -.25629157E-07  -.19103354E-07  -.12543880E-07  -.60005137E-08   .47792619E-09
   .68439321E-08   .13051638E-07   .19057133E-07   .24818759E-07   .30297378E-07
   .35456627E-07   .40263139E-07   .44686742E-07   .48700633E-07   .52281518E-07
   .55409731E-07   .58069316E-07   .60248086E-07   .61937655E-07   .63133429E-07
   .63834588E-07   .64044020E-07   .63768245E-07   .63017302E-07   .61804619E-07
   .60146858E-07   .58063734E-07   .55577819E-07   .52714331E-07   .49500897E-07
   .45967312E-07   .42145277E-07   .38068138E-07   .33770604E-07   .29288471E-07
   .24658335E-07   .19917305E-07   .15102723E-07   .10251877E-07   .54017237E-08
   .58862311E-09  -.41519276E-08  -.87855430E-08  -.13279188E-07  -.17601403E-07
  -.21722514E-07  -.25614821E-07  -.29252779E-07  -.32613151E-07  -.35675145E-07
  -.38420529E-07  -.40833729E-07  -.42901898E-07  -.44614976E-07  -.45965714E-07
  -.46949689E-07  -.47565286E-07  -.47813673E-07  -.47698745E-07  -.47227051E-07
  -.46407704E-07  -.45252278E-07  -.43774673E-07  -.41990986E-07  -.39919349E-07
  -.37579765E-07  -.34993930E-07  -.32185044E-07  -.29177614E-07  -.25997253E-07
  -.22670472E-07  -.19224465E-07  -.15686899E-07  -.12085700E-07  -.84488388E-08
  -.48041239E-08  -.11789957E-08   .23996724E-08   .59057655E-08   .93141108E-08
   .12600650E-07   .15742603E-07   .18718618E-07   .21508906E-07   .24095369E-07
   .26461708E-07   .28593515E-07   .30478355E-07   .32105825E-07   .33467605E-07
   .34557486E-07   .35371387E-07   .35907347E-07   .36165518E-07   .36148122E-07
   .35859410E-07   .35305598E-07   .34494790E-07   .33436890E-07   .32143502E-07
   .30627819E-07   .28904499E-07   .26989532E-07   .24900108E-07   .22654464E-07
   .20271735E-07   .17771798E-07   .15175115E-07   .12502567E-07   .97752953E-08
   .70145411E-08   .42414825E-08   .14770793E-08  -.12580805E-08  -.39439286E-08
  -.65610585E-08  -.90908609E-08  -.11515651E-07  -.13818784E-07  -.15984771E-07
  -.17999370E-07  -.19849678E-07  -.21524207E-07  -.23012951E-07  -.24307434E-07
  -.25400757E-07  -.26287625E-07  -.26964360E-07  -.27428910E-07  -.27680837E-07
  -.27721300E-07  -.27553022E-07  -.27180245E-07  -.26608683E-07  -.25845452E-07
  -.24898999E-07  -.23779022E-07  -.22496376E-07  -.21062979E-07  -.19491707E-07
  -.17796283E-07  -.15991164E-07  -.14091424E-07  -.12112628E-07  -.10070715E-07
  -.79818717E-08  -.58624049E-08  -.37286229E-08  -.15967116E-08   .51738432E-09
   .25980767E-08   .46302454E-08   .65993442E-08   .84915016E-08   .10293615E-07
   .11993436E-07   .13579654E-07   .15041962E-07   .16371124E-07   .17559027E-07
   .18598726E-07   .19484479E-07   .20211777E-07   .20777355E-07   .21179202E-07
   .21416560E-07   .21489910E-07   .21400953E-07   .21152578E-07   .20748829E-07
   .20194853E-07   .19496852E-07   .18662018E-07   .17698469E-07   .16615174E-07
   .15421874E-07   .14129002E-07   .12747591E-07   .11289187E-07   .97657564E-08
   .81895881E-08   .65731994E-08   .49292393E-08   .32703920E-08   .16092824E-08
  -.41618036E-10  -.16700817E-08  -.32642128E-08  -.48125320E-08  -.63040562E-08
  -.77283736E-08  -.90757143E-08  -.10337014E-07  -.11503973E-07  -.12569106E-07
  -.13525791E-07  -.14368301E-07  -.15091843E-07  -.15692572E-07  -.16167616E-07
  -.16515077E-07  -.16734040E-07  -.16824558E-07  -.16787647E-07  -.16625259E-07
  -.16340260E-07  -.15936395E-07  -.15418248E-07  -.14791196E-07  -.14061361E-07
  -.13235551E-07  -.12321206E-07  -.11326326E-07  -.10259412E-07  -.91293908E-08
  -.79455458E-08  -.67174412E-08  -.54548477E-08  -.41676674E-08  -.28658574E-08
  -.15593553E-08  -.25800528E-09   .10285143E-08   .22907609E-08   .35195950E-08
   .47062449E-08   .58423668E-08   .69201018E-08   .79321286E-08   .88717108E-08
   .97327396E-08   .10509772E-07   .11198062E-07   .11793587E-07   .12293071E-07
   .12693995E-07   .12994611E-07   .13193941E-07   .13291779E-07   .13288677E-07
   .13185938E-07   .12985590E-07   .12690367E-07   .12303676E-07   .11829567E-07
   .11272689E-07   .10638254E-07   .99319870E-08   .91600776E-08   .83291288E-08
   .74461018E-08   .65182598E-08   .55531101E-08   .45583451E-08   .35417821E-08
   .25113042E-08   .14747998E-08   .44010444E-09  -.58505751E-09  -.15931289E-08
  -.25767742E-08  -.35289312E-08  -.44428609E-08  -.53121932E-08  -.61309700E-08
  -.68936848E-08  -.75953182E-08  -.82313689E-08  -.87978814E-08  -.92914685E-08
  -.97093298E-08  -.10049265E-07  -.10309684E-07  -.10489609E-07  -.10588678E-07
  -.10607135E-07  -.10545826E-07  -.10406182E-07  -.10190201E-07  -.99004286E-08
  -.95399309E-08  -.91122647E-08  -.86214460E-08  -.80719140E-08  -.74684931E-08
  -.68163520E-08  -.61209611E-08  -.53880479E-08  -.46235514E-08  -.38335749E-08
  -.30243388E-08  -.22021326E-08  -.13732671E-08  -.54402723E-09   .27937486E-09
 atomic pseudo charge-density
   .80000000E+01   .79911143E+01   .79645955E+01   .79208546E+01   .78605573E+01
   .77845978E+01   .76940645E+01   .75901999E+01   .74743574E+01   .73479587E+01
   .72124516E+01   .70692729E+01   .69198157E+01   .67654025E+01   .66072656E+01
   .64465323E+01   .62842166E+01   .61212162E+01   .59583124E+01   .57961752E+01
   .56353692E+01   .54763620E+01   .53195335E+01   .51651857E+01   .50135523E+01
   .48648082E+01   .47190779E+01   .45764442E+01   .44369549E+01   .43006295E+01
   .41674648E+01   .40374397E+01   .39105190E+01   .37866574E+01   .36658020E+01
   .35478944E+01   .34328734E+01   .33206757E+01   .32112374E+01   .31044952E+01
   .30003866E+01   .28988510E+01   .27998295E+01   .27032655E+01   .26091048E+01
   .25172955E+01   .24277883E+01   .23405359E+01   .22554937E+01   .21726191E+01
   .20918714E+01   .20132120E+01   .19366039E+01   .18620119E+01   .17894020E+01
   .17187415E+01   .16499991E+01   .15831441E+01   .15181470E+01   .14549789E+01
   .13936117E+01   .13340175E+01   .12761692E+01   .12200399E+01   .11656029E+01
   .11128319E+01   .10617007E+01   .10121830E+01   .96425285E+00   .91788416E+00
   .87305087E+00   .82972686E+00   .78788598E+00   .74750199E+00   .70854855E+00
   .67099922E+00   .63482748E+00   .60000665E+00   .56650999E+00   .53431061E+00
   .50338154E+00   .47369570E+00   .44522591E+00   .41794491E+00   .39182536E+00
   .36683988E+00   .34296101E+00   .32016127E+00   .29841316E+00   .27768916E+00
   .25796177E+00   .23920351E+00   .22138696E+00   .20448474E+00   .18846957E+00
   .17331426E+00   .15899174E+00   .14547508E+00   .13273751E+00   .12075243E+00
   .10949346E+00   .98934411E-01   .89049359E-01   .79812624E-01   .71198810E-01
   .63182820E-01   .55739873E-01   .48845531E-01   .42475709E-01   .36606698E-01
   .31215183E-01   .26278261E-01   .21773455E-01   .17678733E-01   .13972522E-01
   .10633725E-01   .76417324E-02   .49764381E-02   .26182497E-02   .54810090E-03
  -.12525374E-02  -.28016481E-02  -.41166587E-02  -.52144339E-02  -.61112688E-02
  -.68228833E-02  -.73644176E-02  -.77504286E-02  -.79948877E-02  -.81111795E-02
  -.81121012E-02  -.80098641E-02  -.78160950E-02  -.75418394E-02  -.71975658E-02
  -.67931703E-02  -.63379832E-02  -.58407758E-02  -.53097686E-02  -.47526403E-02
  -.41765374E-02  -.35880853E-02  -.29933998E-02  -.23980991E-02  -.18073173E-02
  -.12257177E-02  -.65750788E-03  -.10645377E-03   .42410415E-03   .93123513E-03
   .14124017E-02   .18654427E-02   .22885565E-02   .26802832E-02   .30394875E-02
   .33653403E-02   .36573015E-02   .39151017E-02   .41387243E-02   .43283880E-02
   .44845286E-02   .46077818E-02   .46989657E-02   .47590637E-02   .47892078E-02
   .47906620E-02   .47648064E-02   .47131216E-02   .46371733E-02   .45385978E-02
   .44190881E-02   .42803800E-02   .41242390E-02   .39524484E-02   .37667973E-02
   .35690693E-02   .33610325E-02   .31444295E-02   .29209680E-02   .26923133E-02
   .24600795E-02   .22258235E-02   .19910381E-02   .17571463E-02   .15254970E-02
   .12973601E-02   .10739231E-02   .85628812E-03   .64546977E-03   .44239306E-03
   .24789249E-03   .62711407E-04  -.11249803E-03  -.27717436E-03  -.43084585E-03
  -.57312907E-03  -.70372703E-03  -.82242687E-03  -.92909727E-03  -.10236854E-02
  -.11062137E-02  -.11767763E-02  -.12355350E-02  -.12827155E-02  -.13186030E-02
  -.13435379E-02  -.13579112E-02  -.13621601E-02  -.13567630E-02  -.13422353E-02
  -.13191240E-02  -.12880037E-02  -.12494716E-02  -.12041429E-02  -.11526466E-02
  -.10956206E-02  -.10337080E-02  -.96755283E-03  -.89779596E-03  -.82507155E-03
  -.75000339E-03  -.67320165E-03  -.59525971E-03  -.51675127E-03  -.43822774E-03
  -.36021579E-03  -.28321519E-03  -.20769691E-03  -.13410144E-03  -.62837394E-04
   .57196770E-05   .71228201E-04   .13338126E-03   .19190705E-03   .24656907E-03
   .29716613E-03   .34353215E-03   .38553570E-03   .42307941E-03   .45609915E-03
   .48456310E-03   .50847057E-03   .52785076E-03   .54276135E-03   .55328695E-03
   .55953750E-03   .56164655E-03   .55976941E-03   .55408135E-03   .54477562E-03
   .53206155E-03   .51616255E-03   .49731409E-03   .47576179E-03   .45175936E-03
   .42556669E-03   .39744796E-03   .36766972E-03   .33649911E-03   .30420209E-03
   .27104182E-03   .23727697E-03   .20316032E-03   .16893727E-03   .13484455E-03
   .10110904E-03   .67946610E-04   .35561177E-04   .41438052E-05  -.26128061E-04
  -.55091242E-04  -.82597364E-04  -.10851328E-03  -.13272138E-03  -.15511978E-03
  -.17562244E-03  -.19415912E-03  -.21067530E-03  -.22513192E-03  -.23750513E-03
  -.24778588E-03  -.25597944E-03  -.26210485E-03  -.26619434E-03  -.26829261E-03
  -.26845611E-03  -.26675225E-03  -.26325860E-03  -.25806196E-03  -.25125754E-03
  -.24294799E-03  -.23324245E-03  -.22225567E-03  -.21010701E-03  -.19691949E-03
  -.18281886E-03  -.16793272E-03  -.15238953E-03  -.13631780E-03  -.11984520E-03
  -.10309776E-03  -.86199100E-04  -.69269667E-04  -.52426063E-04  -.35780394E-04
  -.19439681E-04  -.35053192E-05   .11927410E-04   .26769766E-04   .40939919E-04
   .54363271E-04   .66972708E-04   .78708800E-04   .89519948E-04   .99362467E-04
   .10820062E-03   .11600660E-03   .12276045E-03   .12844995E-03   .13307044E-03
   .13662463E-03   .13912231E-03   .14058008E-03   .14102102E-03   .14047434E-03
   .13897497E-03   .13656316E-03   .13328403E-03   .12918713E-03   .12432597E-03
   .11875753E-03   .11254180E-03   .10574121E-03   .98420256E-04   .90644892E-04
   .82482116E-04   .73999465E-04   .65264554E-04   .56344621E-04   .47306091E-04
   .38214158E-04   .29132389E-04   .20122346E-04   .11243245E-04   .25516222E-05
  -.58989542E-05  -.14058155E-04  -.21879126E-04  -.29318697E-04  -.36337559E-04
  -.42900410E-04  -.48976070E-04  -.54537567E-04  -.59562191E-04  -.64031519E-04
  -.67931410E-04  -.71251974E-04  -.73987513E-04  -.76136430E-04  -.77701128E-04
  -.78687870E-04  -.79106625E-04  -.78970899E-04  -.78297533E-04  -.77106502E-04
  -.75420686E-04  -.73265636E-04  -.70669326E-04  -.67661896E-04  -.64275389E-04
  -.60543486E-04  -.56501231E-04  -.52184760E-04  -.47631031E-04  -.42877551E-04
  -.37962115E-04  -.32922543E-04  -.27796430E-04  -.22620899E-04  -.17432372E-04
  -.12266343E-04  -.71571699E-05  -.21378779E-05   .27600237E-05   .75067082E-05
   .12074184E-04   .16436427E-04   .20569505E-04   .24451673E-04   .28063460E-04
   .31387736E-04   .34409762E-04   .37117222E-04   .39500239E-04   .41551373E-04
   .43265607E-04   .44640312E-04   .45675201E-04   .46372268E-04   .46735714E-04
   .46771858E-04   .46489041E-04   .45897514E-04   .45009322E-04   .43838174E-04
   .42399310E-04   .40709360E-04   .38786193E-04   .36648773E-04   .34316997E-04
   .31811547E-04   .29153725E-04   .26365301E-04   .23468355E-04   .20485123E-04
   .17437848E-04   .14348629E-04   .11239281E-04   .81312003E-05   .50452290E-05
   .20015356E-05  -.98050238E-06  -.38824061E-05  -.66866943E-05  -.93769734E-05
  -.11938018E-04  -.14355843E-04  -.16617762E-04  -.18712441E-04  -.20629936E-04
  -.22361729E-04  -.23900744E-04  -.25241357E-04  -.26379404E-04  -.27312163E-04
  -.28038343E-04  -.28558056E-04  -.28872779E-04  -.28985314E-04  -.28899737E-04
  -.28621338E-04  -.28156560E-04  -.27512925E-04  -.26698961E-04  -.25724123E-04
  -.24598705E-04  -.23333755E-04  -.21940984E-04  -.20432673E-04  -.18821579E-04
  -.17120840E-04  -.15343881E-04  -.13504316E-04  -.11615859E-04  -.96922285E-05
  -.77470570E-05  -.57938065E-05  -.38456823E-05  -.19155530E-05  -.15873945E-07
   .18413849E-05   .36448059E-05   .53835862E-05   .70475937E-05   .86274191E-05
   .10114420E-04   .11500761E-04   .12779446E-04   .13944346E-04   .14990217E-04
   .15912720E-04   .16708422E-04   .17374805E-04   .17910257E-04   .18314067E-04
   .18586406E-04   .18728307E-04   .18741643E-04   .18629092E-04   .18394103E-04
   .18040859E-04   .17574233E-04   .16999738E-04   .16323481E-04   .15552110E-04
   .14692758E-04   .13752985E-04   .12740722E-04   .11664210E-04   .10531941E-04
   .93525937E-05   .81349784E-05   .68879722E-05   .56204618E-05   .43412849E-05
   .30591735E-05   .17826992E-05   .52022086E-06  -.72016618E-06  -.19306769E-05
  -.31038815E-05  -.42327462E-05  -.53106712E-05  -.63315254E-05  -.72896762E-05
  -.81800168E-05  -.89979885E-05  -.97396001E-05  -.10401442E-04  -.10980697E-04
  -.11475148E-04  -.11883178E-04  -.12203773E-04  -.12436512E-04  -.12581562E-04
  -.12639664E-04  -.12612115E-04  -.12500755E-04  -.12307936E-04  -.12036504E-04
  -.11689766E-04  -.11271464E-04  -.10785737E-04  -.10237093E-04  -.96303654E-05
  -.89706813E-05  -.82634192E-05  -.75141700E-05  -.67286967E-05  -.59128932E-05
  -.50727434E-05  -.42142807E-05  -.33435471E-05  -.24665543E-05  -.15892441E-05
  -.71745151E-06   .14313199E-06   .98699276E-06   .18088280E-05   .26035765E-05
   .33664477E-05   .40929479E-05   .47789045E-05   .54204877E-05   .60142291E-05
   .65570385E-05   .70462171E-05   .74794684E-05   .78549061E-05   .81710592E-05
   .84268748E-05   .86217170E-05   .87553643E-05   .88280036E-05   .88402221E-05
   .87929963E-05   .86876789E-05   .85259838E-05   .83099679E-05   .80420124E-05
   .77248013E-05   .73612986E-05   .69547241E-05   .65085279E-05   .60263635E-05
   .55120611E-05   .49695984E-05   .44030727E-05   .38166716E-05   .32146440E-05
   .26012709E-05   .19808369E-05   .13576018E-05   .73577272E-06   .11947758E-06
  -.48726111E-06  -.10805509E-05  -.16566532E-05  -.22120051E-05  -.27432404E-05
  -.32472084E-05  -.37209912E-05  -.41619196E-05  -.45675862E-05  -.49358576E-05
  -.52648838E-05  -.55531057E-05  -.57992615E-05  -.60023895E-05  -.61618302E-05
  -.62772255E-05  -.63485168E-05  -.63759399E-05  -.63600194E-05  -.63015606E-05
  -.62016394E-05  -.60615911E-05  -.58829974E-05  -.56676723E-05  -.54176459E-05
  -.51351481E-05  -.48225903E-05  -.44825467E-05  -.41177343E-05  -.37309933E-05
  -.33252656E-05  -.29035741E-05  -.24690012E-05  -.20246670E-05  -.15737087E-05
  -.11192586E-05  -.66442388E-06  -.21226609E-06   .23421865E-06   .67211853E-06
   .10986242E-05   .15110460E-05   .19068301E-05   .22835733E-05   .26390369E-05
   .29711595E-05   .32780674E-05   .35580849E-05   .38097419E-05   .40317813E-05
   .42231638E-05   .43830714E-05   .45109099E-05   .46063095E-05   .46691235E-05
   .46994264E-05   .46975098E-05   .46638772E-05   .45992377E-05   .45044981E-05
   .43807534E-05   .42292774E-05   .40515111E-05   .38490504E-05   .36236336E-05
   .33771271E-05   .31115111E-05   .28288652E-05   .25313519E-05   .22212020E-05
   .19006977E-05   .15721571E-05   .12379179E-05   .90032132E-06   .56169651E-06
   .22434493E-06  -.10947466E-06  -.43756072E-06  -.75778295E-06  -.10680955E-05
  -.13665496E-05  -.16513052E-05  -.19206416E-05  -.21729675E-05  -.24068299E-05
  -.26209213E-05  -.28140872E-05  -.29853310E-05  -.31338187E-05  -.32588819E-05
  -.33600204E-05  -.34369025E-05  -.34893650E-05  -.35174123E-05  -.35212131E-05
  -.35010977E-05  -.34575527E-05  -.33912160E-05  -.33028700E-05  -.31934344E-05
  -.30639577E-05  -.29156088E-05  -.27496668E-05  -.25675110E-05  -.23706102E-05
  -.21605115E-05  -.19388287E-05  -.17072302E-05  -.14674273E-05  -.12211619E-05
  -.97019428E-06  -.71629092E-06  -.46121256E-06  -.20670235E-06   .45525629E-07
   .29379755E-06   .53649050E-06   .77204278E-06   .99896347E-06   .12158415E-05
   .14213542E-05   .16142745E-05   .17934784E-05   .19579506E-05   .21067902E-05
   .22392145E-05   .23545635E-05   .24523017E-05   .25320205E-05   .25934389E-05
   .26364034E-05   .26608877E-05   .26669906E-05   .26549336E-05   .26250579E-05
   .25778200E-05   .25137875E-05   .24336329E-05   .23381285E-05   .22281388E-05
   .21046142E-05   .19685827E-05   .18211422E-05   .16634521E-05   .14967245E-05
   .13222151E-05   .11412146E-05   .95503878E-06   .76501999E-06   .57249746E-06
   .37880830E-06   .18527854E-06  -.67857148E-08  -.19610677E-06  -.38144357E-06
  -.56159956E-06  -.73543011E-06  -.90184949E-06  -.10598374E-05  -.12084447E-05
  -.13467993E-05  -.14741104E-05  -.15896729E-05  -.16928710E-05  -.17831810E-05
  -.18601734E-05  -.19235147E-05  -.19729681E-05  -.20083940E-05  -.20297490E-05
  -.20370854E-05  -.20305492E-05  -.20103780E-05  -.19768976E-05  -.19305193E-05
  -.18717353E-05  -.18011146E-05  -.17192977E-05  -.16269919E-05  -.15249651E-05
  -.14140397E-05  -.12950867E-05  -.11690191E-05  -.10367848E-05  -.89936014E-06
  -.75774265E-06  -.61294429E-06  -.46598430E-06  -.31788232E-06  -.16965150E-06
  -.22291817E-07   .12321647E-06   .26591911E-06   .40489389E-06   .53925638E-06
   .66816533E-06   .79082774E-06   .90650344E-06   .10145094E-05   .11142234E-05
   .12050875E-05   .12866107E-05   .13583715E-05   .14200196E-05   .14712775E-05
   .15119408E-05   .15418794E-05   .15610366E-05   .15694288E-05   .15671443E-05
   .15543420E-05   .15312488E-05   .14981577E-05   .14554248E-05   .14034657E-05
   .13427525E-05   .12738092E-05   .11972082E-05   .11135654E-05   .10235353E-05
   .92780676E-06   .82709727E-06   .72214815E-06   .61371915E-06   .50258316E-06
   .38952087E-06   .27531545E-06   .16074728E-06   .46588813E-07  -.66400494E-07
  -.17747907E-06  -.28592791E-06  -.39105511E-06  -.49220007E-06  -.58873750E-06
  -.68008110E-06  -.76568697E-06  -.84505665E-06  -.91773982E-06  -.98333669E-06
  -.10415000E-05  -.10919364E-05  -.11344083E-05  -.11687340E-05  -.11947885E-05
  -.12125036E-05  -.12218676E-05  -.12229246E-05  -.12157734E-05  -.12005662E-05
  -.11775070E-05  -.11468494E-05  -.11088944E-05  -.10639876E-05  -.10125166E-05
  -.95490775E-06  -.89162269E-06  -.82315509E-06  -.75002682E-06  -.67278414E-06
  -.59199381E-06  -.50823903E-06  -.42211542E-06  -.33422685E-06  -.24518142E-06
  -.15558730E-06  -.66048756E-07   .22837823E-07   .11048777E-06   .19633186E-06
   .27981989E-06   .36042409E-06   .43764231E-06   .51100106E-06   .58005827E-06
   .64440585E-06   .70367192E-06   .75752290E-06   .80566519E-06   .84784666E-06
   .88385781E-06   .91353261E-06   .93674910E-06   .95342969E-06   .96354106E-06
   .96709393E-06   .96414241E-06   .95478315E-06   .93915419E-06   .91743354E-06
   .88983753E-06   .85661893E-06   .81806486E-06   .77449446E-06   .72625643E-06
   .67372634E-06   .61730387E-06   .55740986E-06   .49448330E-06   .42897818E-06
   .36136036E-06   .29210432E-06   .22168994E-06   .15059927E-06   .79313283E-07
   .83087687E-08  -.61944818E-07  -.13098836E-06  -.19837597E-06  -.26367784E-06
  -.32648284E-06  -.38640104E-06  -.44306607E-06  -.49613724E-06  -.54530153E-06
  -.59027533E-06  -.63080597E-06  -.66667307E-06  -.69768963E-06  -.72370289E-06
  -.74459496E-06  -.76028320E-06  -.77072042E-06  -.77589476E-06  -.77582940E-06
  -.77058201E-06  -.76024404E-06  -.74493970E-06  -.72482481E-06  -.70008542E-06
  -.67093627E-06  -.63761906E-06  -.60040056E-06  -.55957057E-06  -.51543981E-06
  -.46833757E-06  -.41860939E-06  -.36661461E-06  -.31272380E-06  -.25731624E-06
  -.20077728E-06  -.14349576E-06  -.85861386E-07  -.28262130E-07   .28918308E-07
   .85303002E-07   .14052423E-06   .19422582E-06   .24606537E-06   .29571642E-06
   .34287042E-06   .38723860E-06   .42855371E-06   .46657154E-06   .50107233E-06
   .53186198E-06   .55877307E-06   .58166572E-06   .60042822E-06   .61497753E-06
   .62525947E-06   .63124889E-06   .63294947E-06   .63039342E-06   .62364103E-06
   .61277993E-06   .59792426E-06   .57921365E-06   .55681206E-06   .53090639E-06
   .50170507E-06   .46943642E-06   .43434697E-06   .39669962E-06   .35677171E-06
   .31485307E-06   .27124396E-06   .22625295E-06   .18019481E-06   .13338832E-06
   .86154159E-07   .38812697E-07  -.83180962E-08  -.54924765E-07  -.10070041E-06
  -.14534666E-06  -.18857558E-06  -.23011153E-06  -.26969281E-06  -.30707333E-06
  -.34202409E-06  -.37433453E-06  -.40381378E-06  -.43029173E-06  -.45361998E-06
  -.47367262E-06  -.49034688E-06  -.50356357E-06  -.51326739E-06  -.51942712E-06
  -.52203553E-06  -.52110929E-06  -.51668857E-06  -.50883658E-06  -.49763894E-06
  -.48320288E-06  -.46565635E-06  -.44514694E-06  -.42184073E-06  -.39592102E-06
  -.36758690E-06  -.33705180E-06  -.30454196E-06  -.27029470E-06  -.23455682E-06
  -.19758281E-06  -.15963309E-06  -.12097217E-06  -.81866896E-07  -.42584578E-07
  -.33912257E-08   .35450244E-07   .73681739E-07   .11105169E-06   .14731666E-06
 16.2516435017787408 T
 Non local Part
 2 2 1.49073566428804694
 22.6160833033276560 -8.75830154446741460 -8.75830154446741460 3.23304877271115965
 Reciprocal Space Part
   .00000000E+00   .17238469E-01   .68672389E-01   .15346234E+00   .27022603E+00
   .41706304E+00   .59158878E+00   .79097698E+00   .10120099E+01   .12511352E+01
   .15045283E+01   .17681597E+01   .20378642E+01   .23094130E+01   .25785856E+01
   .28412407E+01   .30933848E+01   .33312371E+01   .35512898E+01   .37503625E+01
   .39256496E+01   .40747600E+01   .41957493E+01   .42871422E+01   .43479474E+01
   .43776621E+01   .43762684E+01   .43442207E+01   .42824257E+01   .41922134E+01
   .40753024E+01   .39337592E+01   .37699514E+01   .35864981E+01   .33862170E+01
   .31720693E+01   .29471042E+01   .27144042E+01   .24770315E+01   .22379765E+01
   .20001104E+01   .17661421E+01   .15385787E+01   .13196932E+01   .11114969E+01
   .91571815E+00   .73378818E+00   .56683230E+00   .41566801E+00   .28080888E+00
   .16247403E+00   .60602890E-01  -.25125512E-01  -.95269282E-01  -.15059708E+00
  -.19205897E+00  -.22075551E+00  -.23790571E+00  -.24481474E+00  -.24284194E+00
  -.23336996E+00  -.21777549E+00  -.19740219E+00  -.17353630E+00  -.14738519E+00
  -.12005930E+00  -.92557455E-01  -.65755908E-01  -.40400842E-01  -.17104481E-01
   .36554583E-02   .21533164E-01   .36309267E-01   .47882845E-01   .56261290E-01
   .61548409E-01   .63931216E-01   .63665810E-01   .61062778E-01   .56472518E-01
   .50270866E-01   .42845365E-01   .34582492E-01   .25856093E-01   .17017237E-01
   .83856568E-02   .24286421E-03  -.71729929E-02  -.13670537E-01  -.19106874E-01
  -.23387703E-01  -.26465949E-01  -.28339075E-01  -.29045256E-01  -.28658628E-01
  -.27283812E-01  -.25049944E-01  -.22104419E-01  -.18606579E-01  -.14721511E-01
 Real Space Part
   .00000000E+00   .12186065E-01   .48510836E-01   .10828145E+00   .19036761E+00
   .29323728E+00   .41500489E+00   .55349013E+00   .70628528E+00   .87082856E+00
   .10444808E+01   .12246027E+01   .14086300E+01   .15941436E+01   .17789324E+01
   .19610469E+01   .21388409E+01   .23110014E+01   .24765646E+01   .26349177E+01
   .27857883E+01   .29292197E+01   .30655353E+01   .31952928E+01   .33192299E+01
   .34382050E+01   .35531341E+01   .36649265E+01   .37744233E+01   .38823391E+01
   .39892104E+01   .40953529E+01   .42008280E+01   .43054211E+01   .44086316E+01
   .45096753E+01   .46074991E+01   .47008064E+01   .47880943E+01   .48676981E+01
   .49378450E+01   .49967111E+01   .50424834E+01   .50734210E+01   .50879164E+01
   .50845521E+01   .50621529E+01   .50198301E+01   .49570173E+01   .48734963E+01
   .47694129E+01   .46452810E+01   .45019766E+01   .43407204E+01   .41630514E+01
   .39707911E+01   .37660011E+01   .35509338E+01   .33279795E+01   .30996114E+01
   .28683288E+01   .26366023E+01   .24068214E+01   .21812463E+01   .19619645E+01
   .17508549E+01   .15495580E+01   .13594545E+01   .11816516E+01   .10169770E+01
   .86598090E+00   .72894425E+00   .60589416E+00   .49662418E+00   .40071921E+00
   .31758371E+00   .24647223E+00   .18652105E+00   .13677994E+00   .96243125E-01
   .63878495E-01   .38654454E-01   .19563717E-01   .56437124E-02  -.40067213E-02
  -.10214447E-01  -.13722925E-01  -.15186746E-01  -.15169523E-01  -.14144809E-01
  -.12499606E-01  -.10540002E-01  -.84984602E-02  -.65422569E-02  -.47826197E-02
  -.32841147E-02  -.20739068E-02  -.11505625E-02  -.49213204E-03  -.63313785E-04
 Reciprocal Space Part
   .00000000E+00   .52390048E-01   .20839877E+00   .46455973E+00   .81515486E+00
   .12523029E+01   .17660820E+01   .23446855E+01   .29746098E+01   .36408707E+01
   .43272486E+01   .50165579E+01   .56909373E+01   .63321590E+01   .69219510E+01
   .74423293E+01   .78759333E+01   .82063618E+01   .84185011E+01   .84988409E+01
   .84357722E+01   .82198600E+01   .78440864E+01   .73040565E+01   .65981641E+01
   .57277103E+01   .46969721E+01   .35132177E+01   .21866653E+01   .73038479E+00
  -.83985771E+00  -.25058121E+01  -.42470103E+01  -.60410832E+01  -.78641227E+01
  -.96910839E+01  -.11496219E+02  -.13253538E+02  -.14937280E+02  -.16522395E+02
  -.17985021E+02  -.19302942E+02  -.20456031E+02  -.21426644E+02  -.22199986E+02
  -.22764416E+02  -.23111687E+02  -.23237136E+02  -.23139784E+02  -.22822374E+02
  -.22291331E+02  -.21556639E+02  -.20631653E+02  -.19532836E+02  -.18279428E+02
  -.16893065E+02  -.15397339E+02  -.13817326E+02  -.12179080E+02  -.10509110E+02
  -.88338500E+01  -.71791395E+01  -.55697162E+01  -.40287424E+01  -.25773693E+01
  -.12343528E+01  -.15727314E-01   .10654550E+01   .19993136E+01   .27792550E+01
   .34020112E+01   .38676027E+01   .41792272E+01   .43430788E+01   .43681022E+01
   .42656904E+01   .40493329E+01   .37342261E+01   .33368542E+01   .28745532E+01
   .23650681E+01   .18261164E+01   .12749657E+01   .72803918E+00   .20055565E+00
  -.29378668E+00  -.74307567E+00  -.11373950E+01  -.14689741E+01  -.17322771E+01
  -.19240290E+01  -.20431822E+01  -.20908244E+01  -.20700344E+01  -.19856901E+01
  -.18442359E+01  -.16534182E+01  -.14219956E+01  -.11594360E+01  -.87560505E+00
 Real Space Part
   .00000000E+00   .91648928E-01   .35849175E+00   .77655914E+00   .13070309E+01
   .18978837E+01   .24861075E+01   .30004079E+01   .33642871E+01   .34993881E+01
   .33289715E+01   .27813923E+01   .17934416E+01   .31342552E+00  -.16961388E+01
  -.42563136E+01  -.73701054E+01  -.11021468E+02  -.15174985E+02  -.19776251E+02
  -.24752935E+02  -.30016501E+02  -.35464519E+02  -.40983490E+02  -.46452092E+02
  -.51744721E+02  -.56735224E+02  -.61300680E+02  -.65325103E+02  -.68702949E+02
  -.71342305E+02  -.73167653E+02  -.74122124E+02  -.74169177E+02  -.73293637E+02
  -.71502096E+02  -.68822633E+02  -.65303916E+02  -.61013692E+02  -.56036739E+02
  -.50472359E+02  -.44431499E+02  -.38033592E+02  -.31403242E+02  -.24666848E+02
  -.17949274E+02  -.11370682E+02  -.50436029E+01   .92966053E+00   .64592365E+01
   .11469437E+02   .15900027E+02   .19706995E+02   .22862820E+02   .25356256E+02
   .27191660E+02   .28387915E+02   .28977000E+02   .29002274E+02   .28516543E+02
   .27579983E+02   .26257995E+02   .24619071E+02   .22732715E+02   .20667514E+02
   .18489375E+02   .16259996E+02   .14035595E+02   .11865905E+02   .97934690E+01
   .78532056E+01   .60722596E+01   .44701004E+01   .30588497E+01   .18438041E+01
   .82411608E+00  -.64054502E-02  -.65841428E+00  -.11461045E+01  -.14862828E+01
  -.16974691E+01  -.17990526E+01  -.18105291E+01  -.17508356E+01  -.16377955E+01
  -.14876812E+01  -.13148959E+01  -.11317708E+01  -.94847005E+00  -.77299382E+00
  -.61126459E+00  -.46728234E+00  -.34333206E+00  -.24022761E+00  -.15757594E+00
  -.94047426E-01  -.47639409E-01  -.15922249E-01   .37405772E-02   .14004382E-01
 Non local Part
 0 2 1.49073566428804694
 3.04266922390362282 -0.159856646564827592 -0.159856646564827592 0.212055158100735615E-01
 Reciprocal Space Part
   .17640506E+02   .17599950E+02   .17478735E+02   .17278224E+02   .17000662E+02
   .16649139E+02   .16227548E+02   .15740518E+02   .15193343E+02   .14591903E+02
   .13942570E+02   .13252113E+02   .12527596E+02   .11776275E+02   .11005490E+02
   .10222566E+02   .94347040E+01   .86488908E+01   .78718047E+01   .71097333E+01
   .63684993E+01   .56533961E+01   .49691347E+01   .43198021E+01   .37088311E+01
   .31389823E+01   .26123390E+01   .21303118E+01   .16936562E+01   .13024988E+01
   .95637425E+00   .65426915E+00   .39467400E+00   .17564021E+00  -.51582650E-02
  -.15036050E+00  -.26285252E+00  -.34570115E+00  -.40208894E+00  -.43525146E+00
  -.44841807E+00  -.44475711E+00  -.42732632E+00  -.39902924E+00  -.36257802E+00
  -.32046300E+00  -.27492925E+00  -.22795996E+00  -.18126676E+00  -.13628640E+00
  -.94183558E-01  -.55859182E-01  -.21963721E-01   .70854271E-02   .31083009E-01
   .50012322E-01   .64019719E-01   .73388000E-01   .78509401E-01   .79858914E-01
   .77968546E-01   .73403085E-01   .66737857E-01   .58538853E-01   .49345524E-01
   .39656443E-01   .29917934E-01   .20515697E-01   .11769345E-01   .39297158E-02
  -.28212404E-02  -.83682814E-02  -.12658692E-01  -.15696451E-01  -.17535098E-01
  -.18269666E-01  -.18028053E-01  -.16962153E-01  -.15239094E-01  -.13032863E-01
  -.10516562E-01  -.78555205E-02  -.52014091E-02  -.26874820E-02  -.42500530E-03
   .14991058E-02   .30234634E-02   .41122625E-02   .47543106E-02   .49611589E-02
   .47644810E-02   .42128618E-02   .33681698E-02   .23016836E-02   .10901430E-02
  -.18811584E-03  -.14567973E-02  -.26449296E-02  -.36896905E-02  -.45386969E-02
 Real Space Part
   .72152404E+01   .72234406E+01   .72478061E+01   .72876381E+01   .73417943E+01
   .74087212E+01   .74864980E+01   .75728910E+01   .76654160E+01   .77614073E+01
   .78580906E+01   .79526587E+01   .80423458E+01   .81245000E+01   .81966507E+01
   .82565689E+01   .83023196E+01   .83323038E+01   .83452902E+01   .83404341E+01
   .83172856E+01   .82757850E+01   .82162473E+01   .81393362E+01   .80460283E+01
   .79375704E+01   .78154288E+01   .76812364E+01   .75367355E+01   .73837209E+01
   .72239839E+01   .70592603E+01   .68911814E+01   .67212331E+01   .65507207E+01
   .63807427E+01   .62121725E+01   .60456497E+01   .58815795E+01   .57201410E+01
   .55613025E+01   .54048443E+01   .52503867E+01   .50974227E+01   .49453533E+01
   .47935249E+01   .46412671E+01   .44879284E+01   .43329111E+01   .41757011E+01
   .40158943E+01   .38532178E+01   .36875449E+01   .35189046E+01   .33474850E+01
   .31736303E+01   .29978330E+01   .28207205E+01   .26430374E+01   .24656245E+01
   .22893947E+01   .21153077E+01   .19443431E+01   .17774746E+01   .16156440E+01
   .14597379E+01   .13105668E+01   .11688463E+01   .10351830E+01   .91006299E+00
   .79384520E+00   .68675786E+00   .58889906E+00   .50024079E+00   .42063603E+00
   .34982868E+00   .28746561E+00   .23311048E+00   .18625873E+00   .14635313E+00
   .11279948E+00   .84981855E-01   .62277128E-01   .44068228E-01   .29755965E-01
   .18769164E-01   .10572963E-01   .46752210E-02   .63104032E-03  -.19545264E-02
  -.34254624E-02  -.40752938E-02  -.41489141E-02  -.38455018E-02  -.33222896E-02
  -.26989487E-02  -.20623534E-02  -.14715122E-02  -.96246929E-03  -.55301152E-03
 Reciprocal Space Part
   .40043072E+01   .42359070E+01   .49260363E+01   .60607858E+01   .76173044E+01
   .95642887E+01   .11862651E+02   .14466353E+02   .17323382E+02   .20376850E+02
   .23566190E+02   .26828422E+02   .30099457E+02   .33315415E+02   .36413921E+02
   .39335353E+02   .42024021E+02   .44429240E+02   .46506277E+02   .48217166E+02
   .49531355E+02   .50426183E+02   .50887189E+02   .50908224E+02   .50491398E+02
   .49646838E+02   .48392289E+02   .46752559E+02   .44758822E+02   .42447814E+02
   .39860920E+02   .37043193E+02   .34042331E+02   .30907615E+02   .27688863E+02
   .24435397E+02   .21195067E+02   .18013336E+02   .14932462E+02   .11990769E+02
   .92220488E+01   .66550828E+01   .43132929E+01   .22145330E+01   .37101232E+00
  -.12106500E+01  -.25292465E+01  -.35886896E+01  -.43976166E+01  -.49689087E+01
  -.53191370E+01  -.54679546E+01  -.54374503E+01  -.52514844E+01  -.49350211E+01
  -.45134762E+01  -.40120952E+01  -.34553752E+01  -.28665431E+01  -.22671010E+01
  -.16764450E+01  -.11115646E+01  -.58682399E+00  -.11382769E+00   .29863226E+00
   .64455103E+00   .92061308E+00   .11260292E+01   .12623168E+01   .13330342E+01
   .13434782E+01   .13003563E+01   .12114457E+01   .10852481E+01   .93065122E+00
   .75660736E+00   .57183549E+00   .38455580E+00   .20226132E+00   .31531347E-01
  -.12211070E+00  -.25429372E+00  -.36184992E+00  -.44282201E+00  -.49642939E+00
  -.52299746E+00  -.52385475E+00  -.50120366E+00  -.45797077E+00  -.39764321E+00
  -.32409731E+00  -.24142611E+00  -.15377140E+00  -.65165823E-01   .20610234E-01
   .10015294E+00   .17053745E+00   .22939635E+00   .27497265E+00   .30614731E+00
 Real Space Part
   .19722647E+03   .19675754E+03   .19535942E+03   .19305790E+03   .18989519E+03
   .18592885E+03   .18123024E+03   .17588271E+03   .16997940E+03   .16362089E+03
   .15691263E+03   .14996232E+03   .14287723E+03   .13576162E+03   .12871428E+03
   .12182630E+03   .11517904E+03   .10884251E+03   .10287398E+03   .97317132E+02
   .92201476E+02   .87542269E+02   .83340796E+02   .79585046E+02   .76250744E+02
   .73302693E+02   .70696384E+02   .68379815E+02   .66295460E+02   .64382324E+02
   .62578017E+02   .60820795E+02   .59051496E+02   .57215323E+02   .55263422E+02
   .53154228E+02   .50854521E+02   .48340202E+02   .45596756E+02   .42619400E+02
   .39412943E+02   .35991347E+02   .32377038E+02   .28599987E+02   .24696596E+02
   .20708442E+02   .16680911E+02   .12661778E+02   .86997712E+01   .48431723E+01
   .11384818E+01  -.23708019E+01  -.56452656E+01  -.86504990E+01  -.11357828E+02
  -.13744853E+02  -.15795781E+02  -.17501563E+02  -.18859831E+02  -.19874662E+02
  -.20556169E+02  -.20919963E+02  -.20986485E+02  -.20780258E+02  -.20329072E+02
  -.19663137E+02  -.18814231E+02  -.17814858E+02  -.16697460E+02  -.15493683E+02
  -.14233721E+02  -.12945754E+02  -.11655488E+02  -.10385800E+02  -.91564855E+01
  -.79841180E+01  -.68820053E+01  -.58602382E+01  -.49258212E+01  -.40828737E+01
  -.33328874E+01  -.26750281E+01  -.21064663E+01  -.16227243E+01  -.12180278E+01
  -.88564879E+00  -.61823201E+00  -.40809516E+00  -.24749729E+00  -.12887038E+00
  -.45011381E-01   .10766337E-01   .44521817E-01   .61613642E-01   .66662495E-01
   .63545236E-01   .55415984E-01   .44749277E-01   .33400228E-01   .22676669E-01
 Non local Part
 1 2 1.49073566428804694
 6.52335036003120816 -2.31902812655870605 -2.31902812655870605 0.342422398090344082
 Reciprocal Space Part
   .00000000E+00   .62745132E+00   .12479458E+01   .18546361E+01   .24408919E+01
   .30004031E+01   .35272769E+01   .40161272E+01   .44621538E+01   .48612112E+01
   .52098647E+01   .55054333E+01   .57460188E+01   .59305205E+01   .60586359E+01
   .61308467E+01   .61483916E+01   .61132263E+01   .60279715E+01   .58958506E+01
   .57206181E+01   .55064806E+01   .52580124E+01   .49800671E+01   .46776864E+01
   .43560101E+01   .40201864E+01   .36752863E+01   .33262224E+01   .29776746E+01
   .26340228E+01   .22992888E+01   .19770871E+01   .16705862E+01   .13824804E+01
   .11149718E+01   .86976286E+00   .64805919E+00   .45058177E+00   .27758792E+00
   .12890032E+00   .39427546E-02  -.98218287E-01  -.17882759E+00  -.23939188E+00
  -.28162847E+00  -.30741323E+00  -.31872896E+00  -.31761534E+00  -.30612147E+00
  -.28626195E+00  -.25997721E+00  -.22909873E+00  -.19531963E+00  -.16017097E+00
  -.12500381E+00  -.90977148E-01  -.59051525E-01  -.29988029E-01  -.43523012E-02
   .17476944E-01   .35295466E-01   .49057758E-01   .58858697E-01   .64913286E-01
   .67535188E-01   .67114745E-01   .64097112E-01   .58961121E-01   .52199391E-01
   .44300147E-01   .35731115E-01   .26925791E-01   .18272252E-01   .10104643E-01
   .26973316E-02  -.37383139E-02  -.90546765E-02  -.13166365E-01  -.16046675E-01
  -.17722325E-01  -.18266813E-01  -.17792726E-01  -.16443363E-01  -.14384024E-01
  -.11793281E-01  -.88545634E-02  -.57482998E-02  -.26448739E-02   .30143317E-03
   .29573679E-02   .52144102E-02   .69912184E-02   .82348192E-02   .89205940E-02
   .90511506E-02   .86542032E-02   .77796104E-02   .64957431E-02   .48853635E-02
 Real Space Part
   .00000000E+00   .15365629E+00   .30804613E+00   .46386581E+00   .62173856E+00
   .78218161E+00   .94557731E+00   .11121495E+01   .12819461E+01   .14548281E+01
   .16304665E+01   .18083454E+01   .19877733E+01   .21679002E+01   .23477410E+01
   .25262037E+01   .27021212E+01   .28742865E+01   .30414875E+01   .32025435E+01
   .33563383E+01   .35018519E+01   .36381870E+01   .37645917E+01   .38804754E+01
   .39854190E+01   .40791784E+01   .41616819E+01   .42330204E+01   .42934333E+01
   .43432882E+01   .43830570E+01   .44132894E+01   .44345839E+01   .44475590E+01
   .44528246E+01   .44509553E+01   .44424667E+01   .44277959E+01   .44072858E+01
   .43811754E+01   .43495952E+01   .43125684E+01   .42700174E+01   .42217752E+01
   .41676022E+01   .41072056E+01   .40402627E+01   .39664457E+01   .38854472E+01
   .37970058E+01   .37009305E+01   .35971224E+01   .34855935E+01   .33664820E+01
   .32400623E+01   .31067511E+01   .29671077E+01   .28218296E+01   .26717429E+01
   .25177888E+01   .23610054E+01   .22025065E+01   .20434578E+01   .18850517E+01
   .17284806E+01   .15749111E+01   .14254585E+01   .12811631E+01   .11429696E+01
   .10117088E+01   .88808304E+00   .77265607E+00   .66584616E+00   .56792386E+00
   .47901357E+00   .39909891E+00   .32803145E+00   .26554245E+00   .21125694E+00
   .16470975E+00   .12536269E+00   .92622346E-01   .65858024E-01   .44419033E-01
   .27651040E-01   .14910964E-01   .55800886E-02  -.92484589E-03  -.51427439E-02
  -.75615129E-02  -.86136631E-02  -.86740538E-02  -.80596253E-02  -.70308973E-02
  -.57949747E-02  -.45097733E-02  -.32891623E-02  -.22087227E-02  -.13118292E-02
 Reciprocal Space Part
   .00000000E+00  -.32735132E-01  -.57874129E-01  -.68025562E-01  -.56202218E-01
  -.16010353E-01   .58176087E-01   .17106071E+00   .32629323E+00   .52636470E+00
   .77253190E+00   .10647729E+01   .14017745E+01   .17809525E+01   .21985029E+01
   .26494844E+01   .31279281E+01   .36269730E+01   .41390234E+01   .46559233E+01
   .51691449E+01   .56699848E+01   .61497649E+01   .66000310E+01   .70127450E+01
   .73804676E+01   .76965237E+01   .79551506E+01   .81516221E+01   .82823483E+01
   .83449476E+01   .83382897E+01   .82625100E+01   .81189938E+01   .79103327E+01
   .76402541E+01   .73135258E+01   .69358391E+01   .65136730E+01   .60541436E+01
   .55648427E+01   .50536691E+01   .45286581E+01   .39978121E+01   .34689363E+01
   .29494852E+01   .24464209E+01   .19660874E+01   .15141038E+01   .10952774E+01
   .71353913E+00   .37190143E+00   .72438747E-01  -.18370908E+00  -.39631214E+00
  -.56600562E+00  -.69422685E+00  -.78313655E+00  -.83552683E+00  -.85471902E+00
  -.84445414E+00  -.80877934E+00  -.75193315E+00  -.67823282E+00  -.59196617E+00
  -.49729095E+00  -.39814351E+00  -.29815894E+00  -.20060415E+00  -.10832475E+00
  -.23706635E-01   .51347747E-01   .11542851E+00   .16761353E+00   .20745065E+00
   .23492818E+00   .25043526E+00   .25471379E+00   .24880386E+00   .23398467E+00
   .21171285E+00   .18356033E+00   .15115337E+00   .11611479E+00   .80010558E-01
   .44302487E-01   .10307687E-01  -.20834167E-01  -.48185351E-01  -.71026167E-01
  -.88862608E-01  -.10142594E+00  -.10866476E+00  -.11073022E+00  -.10795546E+00
  -.10083022E+00  -.89971766E-01  -.76093420E-01  -.59971865E-01  -.42414381E-01
 Real Space Part
   .00000000E+00   .18022695E+01   .35810219E+01   .53133582E+01   .69775955E+01
   .85538238E+01   .10024405E+02   .11374397E+02   .12591887E+02   .13668231E+02
   .14598183E+02   .15379918E+02   .16014945E+02   .16507924E+02   .16866375E+02
   .17100319E+02   .17221837E+02   .17244583E+02   .17183260E+02   .17053083E+02
   .16869238E+02   .16646371E+02   .16398113E+02   .16136659E+02   .15872418E+02
   .15613742E+02   .15366736E+02   .15135169E+02   .14920466E+02   .14721796E+02
   .14536241E+02   .14359036E+02   .14183879E+02   .14003283E+02   .13808973E+02
   .13592293E+02   .13344625E+02   .13057788E+02   .12724424E+02   .12338328E+02
   .11894740E+02   .11390574E+02   .10824575E+02   .10197410E+02   .95116892E+01
   .87719095E+01   .79843362E+01   .71568230E+01   .62985784E+01   .54198909E+01
   .45318216E+01   .36458770E+01   .27736744E+01   .19266107E+01   .11155464E+01
   .35051563E+00  -.35953011E+00  -.10069364E+01  -.15855132E+01  -.20906511E+01
  -.25193856E+01  -.28704091E+01  -.31440329E+01  -.33421028E+01  -.34678740E+01
  -.35258504E+01  -.35215974E+01  -.34615340E+01  -.33527132E+01  -.32025984E+01
  -.30188433E+01  -.28090822E+01  -.25807368E+01  -.23408439E+01  -.20959100E+01
  -.18517927E+01  -.16136129E+01  -.13856965E+01  -.11715467E+01  -.97384249E+00
  -.79446400E+00  -.63453884E+00  -.49450713E+00  -.37420055E+00  -.27293153E+00
  -.18958821E+00  -.12273128E+00  -.70689083E-01  -.31647771E-01  -.37338476E-02
   .14912971E-01   .26078057E-01   .31422204E-01   .32444272E-01   .30455922E-01
   .26567743E-01   .21685682E-01   .16516420E-01   .11580125E-01   .72289023E-02
 PAW radial sets
 335 1.01033374906442153
(5E20.12)                                
 augmentation charges (non sperical)
   .633193623104E+00  -.181671211978E+00  -.112457030995E+00   .117353632134E-01  -.214355956712E+00
   .121607713578E+00  -.181671211978E+00   .516635728869E-01   .240664015905E-01  -.296640235007E-02
   .519908539409E-01  -.328426013966E-01  -.112457030995E+00   .240664015905E-01  -.477181110884E-01
  -.334105715416E-02  -.300843549084E-01  -.284835049355E-01   .117353632134E-01  -.296640235007E-02
  -.334105715416E-02  -.374436759671E-04  -.436596841354E-02   .147763301072E-02  -.214355956712E+00
   .519908539409E-01  -.300843549084E-01  -.436596841354E-02   .440474686255E-02  -.469900140464E-01
   .121607713578E+00  -.328426013966E-01  -.284835049355E-01   .147763301072E-02  -.469900140464E-01
   .225787458338E-01
 uccopancies in atom
   .139999997296E+01   .000000000000E+00   .000000000000E+00   .000000000000E+00   .000000000000E+00
   .000000000000E+00   .000000000000E+00   .000000000000E+00   .000000000000E+00   .000000000000E+00
   .000000000000E+00   .000000000000E+00   .000000000000E+00   .000000000000E+00   .999999999276E+00
   .000000000000E+00   .000000000000E+00   .000000000000E+00   .000000000000E+00   .000000000000E+00
   .000000000000E+00   .000000000000E+00   .000000000000E+00   .000000000000E+00   .000000000000E+00
   .000000000000E+00   .000000000000E+00   .000000000000E+00   .000000000000E+00   .000000000000E+00
   .000000000000E+00   .000000000000E+00   .000000000000E+00   .000000000000E+00   .000000000000E+00
   .000000000000E+00
 grid
   .444792170761E-04   .458690812442E-04   .473023751876E-04   .487804559781E-04   .503047230926E-04
   .518766197380E-04   .534976342178E-04   .551693013416E-04   .568932038775E-04   .586709740514E-04
   .605042950921E-04   .623949028251E-04   .643445873161E-04   .663551945659E-04   .684286282582E-04
   .705668515620E-04   .727718889904E-04   .750458283175E-04   .773908225552E-04   .798090919916E-04
   .823029262930E-04   .848746866723E-04   .875268081245E-04   .902618017317E-04   .930822570414E-04
   .959908445177E-04   .989903180702E-04   .102083517661E-03   .105273371995E-03   .108562901290E-03
   .111955220139E-03   .115453540459E-03   .119061174529E-03   .122781538132E-03   .126618153782E-03
   .130574654066E-03   .134654785077E-03   .138862409966E-03   .143201512599E-03   .147676201325E-03
   .152290712869E-03   .157049416346E-03   .161956817392E-03   .167017562433E-03   .172236443086E-03
   .177618400693E-03   .183168531000E-03   .188892088982E-03   .194794493821E-03   .200881334033E-03
   .207158372762E-03   .213631553235E-03   .220307004390E-03   .227191046680E-03   .234290198055E-03
   .241611180136E-03   .249160924578E-03   .256946579630E-03   .264975516909E-03   .273255338376E-03
   .281793883533E-03   .290599236847E-03   .299679735406E-03   .309043976810E-03   .318700827311E-03
   .328659430212E-03   .338929214520E-03   .349519903874E-03   .360441525754E-03   .371704420972E-03
   .383319253467E-03   .395297020396E-03   .407649062552E-03   .420387075099E-03   .433523118644E-03
   .447069630661E-03   .461039437262E-03   .475445765341E-03   .490302255103E-03   .505622972973E-03
   .521422424916E-03   .537715570175E-03   .554517835429E-03   .571845129403E-03   .589713857930E-03
   .608140939485E-03   .627143821201E-03   .646740495392E-03   .666949516586E-03   .687790019094E-03
   .709281735125E-03   .731445013472E-03   .754300838775E-03   .777870851394E-03   .802177367893E-03
   .827243402175E-03   .853092687269E-03   .879749697802E-03   .907239673170E-03   .935588641441E-03
   .964823443991E-03   .994971760923E-03   .102606213728E-02   .105812401005E-02   .109118773606E-02
   .112528462074E-02   .116044694769E-02   .119670800931E-02   .123410213833E-02   .127266474025E-02
   .131243232692E-02   .135344255112E-02   .139573424213E-02   .143934744261E-02   .148432344640E-02
   .153070483770E-02   .157853553135E-02   .162786081442E-02   .167872738909E-02   .173118341686E-02
   .178527856416E-02   .184106404937E-02   .189859269132E-02   .195791895929E-02   .201909902459E-02
   .208219081376E-02   .214725406337E-02   .221435037663E-02   .228354328168E-02   .235489829178E-02
   .242848296728E-02   .250436697965E-02   .258262217742E-02   .266332265418E-02   .274654481879E-02
   .283236746767E-02   .292087185944E-02   .301214179187E-02   .310626368117E-02   .320332664385E-02
   .330342258109E-02   .340664626575E-02   .351309543210E-02   .362287086839E-02   .373607651220E-02
   .385281954895E-02   .397321051329E-02   .409736339384E-02   .422539574106E-02   .435742877856E-02
   .449358751791E-02   .463400087695E-02   .477880180190E-02   .492812739321E-02   .508211903537E-02
   .524092253078E-02   .540468823783E-02   .557357121318E-02   .574773135867E-02   .592733357266E-02
   .611254790615E-02   .630354972382E-02   .650051987007E-02   .670364484023E-02   .691311695713E-02
   .712913455321E-02   .735190215831E-02   .758163069331E-02   .781853766985E-02   .806284739624E-02
   .831479118989E-02   .857460759628E-02   .884254261485E-02   .911884993190E-02   .940379116081E-02
   .969763608969E-02   .100006629369E-01   .103131586143E-01   .106354189993E-01   .109677492144E-01
   .113104639167E-01   .116638875953E-01   .120283548790E-01   .124042108528E-01   .127918113847E-01
   .131915234628E-01   .136037255425E-01   .140288079052E-01   .144671730273E-01   .149192359620E-01
   .153854247315E-01   .158661807329E-01   .163619591556E-01   .168732294127E-01   .174004755852E-01
   .179441968805E-01   .185049081050E-01   .190831401513E-01   .196794405013E-01   .202943737442E-01
   .209285221114E-01   .215824860272E-01   .222568846781E-01   .229523565982E-01   .236695602746E-01
   .244091747701E-01   .251719003668E-01   .259584592287E-01   .267695960857E-01   .276060789386E-01
   .284686997862E-01   .293582753756E-01   .302756479748E-01   .312216861709E-01   .321972856919E-01
   .332033702553E-01   .342408924423E-01   .353108345999E-01   .364142097711E-01   .375520626538E-01
   .387254705901E-01   .399355445865E-01   .411834303656E-01   .424703094508E-01   .437974002854E-01
   .451659593859E-01   .465772825317E-01   .480327059922E-01   .495336077918E-01   .510814090147E-01
   .526775751505E-01   .543236174816E-01   .560210945143E-01   .577716134541E-01   .595768317279E-01
   .614384585530E-01   .633582565552E-01   .653380434383E-01   .673796937046E-01   .694851404298E-01
   .716563770937E-01   .738954594671E-01   .762045075584E-01   .785857076214E-01   .810413142243E-01
   .835736523853E-01   .861851197734E-01   .888781889790E-01   .916554098543E-01   .945194119286E-01
   .974729068968E-01   .100518691188E+00   .103659648612E+00   .106898753092E+00   .110239071477E+00
   .113683766447E+00   .117236099511E+00   .120899434089E+00   .124677238700E+00   .128573090247E+00
   .132590677400E+00   .136733804093E+00   .141006393122E+00   .145412489860E+00   .149956266089E+00
   .154642023949E+00   .159474200010E+00   .164457369474E+00   .169596250507E+00   .174895708706E+00
   .180360761705E+00   .185996583927E+00   .191808511483E+00   .197802047223E+00   .203982865949E+00
   .210356819784E+00   .216929943718E+00   .223708461317E+00   .230698790620E+00   .237907550211E+00
   .245341565490E+00   .253007875134E+00   .260913737759E+00   .269066638797E+00   .277474297579E+00
   .286144674648E+00   .295085979291E+00   .304306677318E+00   .313815499071E+00   .323621447696E+00
   .333733807664E+00   .344162153563E+00   .354916359160E+00   .366006606756E+00   .377443396822E+00
   .389237557943E+00   .401400257069E+00   .413943010089E+00   .426877692738E+00   .440216551834E+00
   .453972216880E+00   .468157712017E+00   .482786468360E+00   .497872336712E+00   .513429600678E+00
   .529472990191E+00   .546017695458E+00   .563079381341E+00   .580674202188E+00   .598818817134E+00
   .617530405867E+00   .636826684899E+00   .656725924337E+00   .677246965184E+00   .698409237178E+00
   .720232777186E+00   .742738248179E+00   .765946958792E+00   .789880883502E+00   .814562683434E+00
   .840015727817E+00   .866264116108E+00   .893332700813E+00   .921247111018E+00   .950033776649E+00
   .979719953507E+00   .101033374906E+01   .104190414908E+01   .107446104506E+01   .110803526252E+01
   .114265859021E+01   .117836381020E+01   .121518472892E+01   .125315620916E+01   .129231420309E+01
 aepotential
   .145158941887E+05   .146337097551E+05   .147290196034E+05   .148011036334E+05   .148494164918E+05
   .148735666839E+05   .148733275872E+05   .148486391018E+05   .147996103253E+05   .147265226513E+05
   .146298226265E+05   .145101175206E+05   .143681710033E+05   .142048902814E+05   .140213115394E+05
   .138185961707E+05   .135980057604E+05   .133608900963E+05   .131086715161E+05   .128428265731E+05
   .125648688294E+05   .122763300341E+05   .119787472750E+05   .116736437910E+05   .113625161656E+05
   .110468201929E+05   .107279590504E+05   .104072731713E+05   .100860305378E+05   .976542047480E+04
   .944654732186E+04   .913042680628E+04   .881798353340E+04   .851004969379E+04   .820736554171E+04
   .791058066349E+04   .762025640861E+04   .733686902522E+04   .706081391223E+04   .679240984021E+04
   .653190414835E+04   .627947792460E+04   .603525147514E+04   .579928984579E+04   .557160832166E+04
   .535217782468E+04   .514093014104E+04   .493776292471E+04   .474254443514E+04   .455511797684E+04
   .437530602186E+04   .420291400291E+04   .403773377604E+04   .387954673112E+04   .372812662005E+04
   .358324202238E+04   .344465855209E+04   .331214076837E+04   .318545382871E+04   .306436489198E+04
   .294864433946E+04   .283806672159E+04   .273241162816E+04   .263146429557E+04   .253501614661E+04
   .244286515757E+04   .235481615719E+04   .227068100126E+04   .219027865872E+04   .211343527825E+04
   .203998413015E+04   .196976555757E+04   .190262684063E+04   .183842209146E+04   .177701200218E+04
   .171826378712E+04   .166205081089E+04   .160825251263E+04   .155675411409E+04   .150744637660E+04
   .146022543604E+04   .141499252440E+04   .137165374279E+04   .133011985889E+04   .129030606963E+04
   .125213182673E+04   .121552058603E+04   .118039962700E+04   .114669986130E+04   .111435567188E+04
   .108330468496E+04   .105348764045E+04   .102484823679E+04   .997332948664E+03   .970890895727E+03
   .945473705615E+03   .921035385516E+03   .897532177270E+03   .874922461191E+03   .853166632225E+03
   .832226993726E+03   .812067654931E+03   .792654443184E+03   .773954800835E+03   .755937712083E+03
   .738573611250E+03   .721834314810E+03   .705692941694E+03   .690123847258E+03   .675102562942E+03
   .660605724605E+03   .646611024805E+03   .633097151934E+03   .620043740317E+03   .607431319836E+03
   .595241269991E+03   .583455779095E+03   .572057794540E+03   .561030991594E+03   .550359730417E+03
   .540029026689E+03   .530024512134E+03   .520332402802E+03   .510939476578E+03   .501833033634E+03
   .493000878469E+03   .484431289412E+03   .476112994945E+03   .468035152240E+03   .460187322172E+03
   .452559452046E+03   .445141853199E+03   .437925181905E+03   .430900423195E+03   .424058872884E+03
   .417392120431E+03   .410892035653E+03   .404550751192E+03   .398360651167E+03   .392314355848E+03
   .386404710253E+03   .380624771002E+03   .374967795632E+03   .369427230889E+03   .363996702948E+03
   .358670006812E+03   .353441097476E+03   .348304080138E+03   .343253202440E+03   .338282845767E+03
   .333387517884E+03   .328561845377E+03   .323800567093E+03   .319098527353E+03   .314450670069E+03
   .309852033040E+03   .305297742463E+03   .300783008459E+03   .296303120019E+03   .291853441425E+03
   .287429408460E+03   .283026524537E+03   .278640359044E+03   .274266544092E+03   .269900772665E+03
   .265538797905E+03   .261176431186E+03   .256809542884E+03   .252434061624E+03   .248045975634E+03
   .243641334021E+03   .239216248857E+03   .234766898040E+03   .230289528866E+03   .225780462156E+03
   .221236098009E+03   .216652921176E+03   .212027509018E+03   .207356538933E+03   .202636798013E+03
   .197865193476E+03   .193038764338E+03   .188154694464E+03   .183210327528E+03   .178203182736E+03
   .173130973017E+03   .167991624693E+03   .162783298973E+03   .157504415706E+03   .152153679271E+03
   .146730106494E+03   .141233057287E+03   .135662267295E+03   .130017883210E+03   .124300500191E+03
   .118511201540E+03   .112651600004E+03   .106723880448E+03   .100730842906E+03   .946759449766E+02
   .885633420487E+02   .823979232618E+02   .761853406096E+02   .699320278463E+02   .636452051139E+02
   .573328645190E+02   .510037311406E+02   .446671936334E+02   .383331986745E+02   .320121042852E+02
   .257144895392E+02   .194509218734E+02   .132316902848E+02   .706652244788E+01   .964318051397E+00
  -.506705116806E+01  -.110208026267E+02  -.168910714323E+02  -.226723965425E+02  -.283587564396E+02
  -.339420808650E+02  -.394102531425E+02  -.447447665562E+02  -.499184534736E+02  -.548938092510E+02
  -.596228597348E+02  -.640491564441E+02  -.681124008957E+02  -.717554232875E+02  -.749325074287E+02
  -.776174636759E+02  -.798097224375E+02  -.815370893203E+02  -.828544648974E+02  -.838385510205E+02
  -.845792971979E+02  -.851696413050E+02  -.856957621930E+02  -.862300628078E+02  -.868281294869E+02
  -.875294019191E+02  -.883601247812E+02  -.893369060914E+02  -.904697289370E+02  -.917640051829E+02
  -.932217926572E+02  -.948424975131E+02  -.966233425585E+02  -.985597632713E+02  -.100645779177E+03
  -.102874331036E+03  -.105237557451E+03  -.107726989836E+03  -.110333659649E+03  -.113048122234E+03
  -.115860407032E+03  -.118759906575E+03  -.121735215757E+03  -.124773932807E+03  -.127862436514E+03
  -.130985659319E+03  -.134126888470E+03  -.137267644268E+03  -.140387707690E+03  -.143465393656E+03
  -.146478184855E+03  -.149403835171E+03  -.152221998585E+03  -.154916297788E+03  -.157476466438E+03
  -.159899729640E+03  -.162189934761E+03  -.164352326122E+03  -.166381973447E+03  -.168246105609E+03
  -.169866121404E+03  -.171112286974E+03  -.171826960555E+03  -.171882307833E+03  -.171255164352E+03
  -.170072703776E+03  -.168575978199E+03  -.167006450409E+03  -.165505683161E+03  -.164103374116E+03
  -.162768787043E+03  -.161461557707E+03  -.160155027590E+03  -.158838999786E+03  -.157514345039E+03
  -.156186595455E+03  -.154861253501E+03  -.153541354527E+03  -.152226857176E+03  -.150915115535E+03
  -.149601764901E+03  -.148281594933E+03  -.146949220965E+03  -.145599520237E+03  -.144227869607E+03
  -.142830248030E+03  -.141403251834E+03  -.139944064254E+03  -.138450402406E+03  -.136920457017E+03
  -.135352833962E+03  -.133746499848E+03  -.132100739348E+03  -.130415116063E+03  -.128689452835E+03
  -.126923818992E+03  -.125118532600E+03  -.123274169870E+03  -.121391614496E+03  -.119472039647E+03
  -.117516768915E+03  -.115525133972E+03  -.113502712566E+03  -.111452200452E+03  -.109376654204E+03
  -.107279406109E+03  -.105163989889E+03  -.103034051281E+03  -.100893262794E+03  -.987452587816E+02
  -.965936022381E+02  -.944417887290E+02  -.922932815496E+02  -.901515616066E+02  -.880201699344E+02
  -.859027206663E+02  -.838028715495E+02  -.817242539057E+02  -.796703750575E+02  -.776445156708E+02
 core charge-density
   .706305794989E-03   .750192055528E-03   .796801743525E-03   .846303532822E-03   .898876512554E-03
   .954710827320E-03   .101400835644E-02   .107698343462E-02   .114386361657E-02   .121489048818E-02
   .129032052707E-02   .137042601550E-02   .145549600872E-02   .154583736219E-02   .164177582107E-02
   .174365717582E-02   .185184848774E-02   .196673938872E-02   .208874345957E-02   .221829969159E-02
   .235587403636E-02   .250196104893E-02   .265708562997E-02   .282180487268E-02   .299671002072E-02
   .318242854357E-02   .337962633628E-02   .358901005097E-02   .381132956758E-02   .404738061224E-02
   .429800753165E-02   .456410623264E-02   .484662729646E-02   .514657927787E-02   .546503219974E-02
   .580312125426E-02   .616205072285E-02   .654309812696E-02   .694761862323E-02   .737704965657E-02
   .783291588609E-02   .831683439901E-02   .883052022885E-02   .937579219497E-02   .995457908131E-02
   .105689261733E-01   .112210021724E-01   .119131065100E-01   .126476770811E-01   .134272984221E-01
   .142547103560E-01   .151328171306E-01   .160646970761E-01   .170536128096E-01   .181030220159E-01
   .192165888351E-01   .203981958885E-01   .216519569755E-01   .229822304779E-01   .243936335060E-01
   .258910568252E-01   .274796806024E-01   .291649910133E-01   .309527977525E-01   .328492524920E-01
   .348608683329E-01   .369945402984E-01   .392575669181E-01   .416576729536E-01   .442030333194E-01
   .469022982525E-01   .497646197875E-01   .527996795949E-01   .560177182407E-01   .594295659301E-01
   .630466747951E-01   .668811527902E-01   .709457992605E-01   .752541422474E-01   .798204775971E-01
   .846599099395E-01   .897883956023E-01   .952227875288E-01   .100980882263E+00   .107081469072E+00
   .113544381256E+00   .120390549737E+00   .127642058942E+00   .135322205085E+00   .143455556863E+00
   .152068018639E+00   .161186896134E+00   .170840964696E+00   .181060540131E+00   .191877552167E+00
   .203325620520E+00   .215440133588E+00   .228258329751E+00   .241819381245E+00   .256164480587E+00
   .271336929459E+00   .287382229997E+00   .304348178368E+00   .322284960507E+00   .341245249853E+00
   .361284306912E+00   .382460080402E+00   .404833309746E+00   .428467628587E+00   .453429669015E+00
   .479789166073E+00   .507619062136E+00   .536995610633E+00   .567998478563E+00   .600710847167E+00
   .635219510051E+00   .671614967989E+00   .709991519527E+00   .750447346443E+00   .793084593019E+00
   .838009437960E+00   .885332157716E+00   .935167179826E+00   .987633124805E+00   .104285283494E+01
   .110095338825E+01   .116206609575E+01   .122632647993E+01   .129387423232E+01   .136485314779E+01
   .143941103311E+01   .151769958710E+01   .159987424955E+01   .168609401602E+01   .177652121529E+01
   .187132124627E+01   .197066227083E+01   .207471485911E+01   .218365158350E+01   .229764655746E+01
   .241687491536E+01   .254151222919E+01   .267173385825E+01   .280771422753E+01   .294962603095E+01
   .309763935524E+01   .325192072071E+01   .341263203507E+01   .357992945679E+01   .375396216487E+01
   .393487103198E+01   .412278719876E+01   .431783054741E+01   .452010807321E+01   .472971215398E+01
   .494671871760E+01   .517118530942E+01   .540314906233E+01   .564262457346E+01   .588960169339E+01
   .614404323493E+01   .640588261099E+01   .667502141248E+01   .695132694003E+01   .723462970522E+01
   .752472091994E+01   .782134999530E+01   .812422207415E+01   .843299562474E+01   .874728012612E+01
   .906663387917E+01   .939056198066E+01   .971851450112E+01   .100498849108E+02   .103840088013E+02
   .107201629535E+02   .110575648052E+02   .113953723764E+02   .117326847084E+02   .120685428791E+02
   .124019316552E+02   .127317818432E+02   .130569734000E+02   .133763393640E+02   .136886706616E+02
   .139927218437E+02   .142872177976E+02   .145708614754E+02   .148423426683E+02   .151003478473E+02
   .153435710767E+02   .155707259921E+02   .157805588160E+02   .159718623677E+02   .161434909993E+02
   .162943763669E+02   .164235439225E+02   .165301299813E+02   .166133991942E+02   .166727622213E+02
   .167077933770E+02   .167182479828E+02   .167040791356E+02   .166654535735E+02   .166027662922E+02
   .165166535444E+02   .164080038362E+02   .162779665221E+02   .161279575931E+02   .159596622549E+02
   .157750339030E+02   .155762891206E+02   .153658983581E+02   .151465719915E+02   .149212415162E+02
   .146930356932E+02   .144652515479E+02   .142413202080E+02   .140247676707E+02   .138191706949E+02
   .136281081338E+02   .134551081424E+02   .133035918178E+02   .131768139429E+02   .130778016765E+02
   .130092920333E+02   .129736692609E+02   .129729032275E+02   .130084900818E+02   .130813965416E+02
   .131920092477E+02   .133400906767E+02   .135247431257E+02   .137443822518E+02   .139967215725E+02
   .142787691834E+02   .145868377447E+02   .149165685144E+02   .152629699025E+02   .156204707108E+02
   .159829879273E+02   .163440086559E+02   .166966854644E+02   .170339441045E+02   .173486021947E+02
   .176334970840E+02   .178816207392E+02   .180862591603E+02   .182411335286E+02   .183405400472E+02
   .183794852544E+02   .183538134712E+02   .182603230077E+02   .180968677873E+02   .178624411732E+02
   .175572389954E+02   .171826990854E+02   .167415150269E+02   .162376223354E+02   .156761558690E+02
   .150633779576E+02   .144065774940E+02   .137139410645E+02   .129943980676E+02   .122574426801E+02
   .115129364311E+02   .107708960081E+02   .100412717017E+02   .933372253494E+01   .865739456684E+01
   .802070904006E+01   .743116689255E+01   .689517566388E+01   .641790387627E+01   .600316659959E+01
   .565334469216E+01   .536933875904E+01   .515055814455E+01   .499494655095E+01   .489904681601E+01
   .485810904867E+01   .486624485581E+01   .491662350365E+01   .500169619166E+01   .511343092062E+01
   .524354596698E+01   .538373727277E+01   .552589752960E+01   .566232342108E+01   .578590577581E+01
   .589029671916E+01   .597004823104E+01   .602071755022E+01   .603893637334E+01   .602244258804E+01
   .597007510608E+01   .588173404275E+01   .575830989418E+01   .560158644017E+01   .541412283534E+01
   .519912074026E+01   .496028244281E+01   .470166571995E+01   .442754077346E+01   .414225396202E+01
   .385010230850E+01   .355522192829E+01   .326149270455E+01   .297246066177E+01   .269127855910E+01
   .242066479402E+01   .216287978193E+01   .191971857673E+01   .169251795640E+01   .148217644548E+01
   .128918420715E+01   .111366110021E+01   .955400420103E+00   .813917218492E+00   .688497536946E+00
   .578247171941E+00   .482138563817E+00   .399054535022E+00   .327827907121E+00   .267276327642E+00
   .216231921260E+00   .173565633631E+00   .138206353031E+00   .109155071127E+00   .854944798507E-01
   .663944986470E-01   .511142889112E-01   .390013435812E-01   .294882431238E-01   .220876479080E-01
 pspotential
  -.184084954645E+03  -.184086951970E+03  -.184088888772E+03  -.184090766885E+03  -.184092588086E+03
  -.184094354101E+03  -.184096066600E+03  -.184097727206E+03  -.184099337490E+03  -.184100898978E+03
  -.184102413147E+03  -.184103881431E+03  -.184105305220E+03  -.184106685861E+03  -.184108024663E+03
  -.184109322892E+03  -.184110581777E+03  -.184111802510E+03  -.184112986247E+03  -.184114134108E+03
  -.184115247180E+03  -.184116326516E+03  -.184117373138E+03  -.184118388037E+03  -.184119372173E+03
  -.184120326478E+03  -.184121251855E+03  -.184122149180E+03  -.184123019301E+03  -.184123863043E+03
  -.184124681204E+03  -.184125474557E+03  -.184126243854E+03  -.184126989823E+03  -.184127713168E+03
  -.184128414575E+03  -.184129094706E+03  -.184129754206E+03  -.184130393697E+03  -.184131013785E+03
  -.184131615055E+03  -.184132198076E+03  -.184132763399E+03  -.184133311558E+03  -.184133843072E+03
  -.184134358441E+03  -.184134858154E+03  -.184135342681E+03  -.184135812481E+03  -.184136267996E+03
  -.184136709656E+03  -.184137137878E+03  -.184137553065E+03  -.184137955609E+03  -.184138345888E+03
  -.184138724270E+03  -.184139091111E+03  -.184139446756E+03  -.184139791539E+03  -.184140125783E+03
  -.184140449803E+03  -.184140763901E+03  -.184141068372E+03  -.184141363501E+03  -.184141649563E+03
  -.184141926826E+03  -.184142195546E+03  -.184142455975E+03  -.184142708354E+03  -.184142952917E+03
  -.184143189891E+03  -.184143419492E+03  -.184143641934E+03  -.184143857419E+03  -.184144066146E+03
  -.184144268304E+03  -.184144464076E+03  -.184144653641E+03  -.184144837167E+03  -.184145014820E+03
  -.184145186758E+03  -.184145353133E+03  -.184145514091E+03  -.184145669773E+03  -.184145820312E+03
  -.184145965838E+03  -.184146106473E+03  -.184146242337E+03  -.184146373540E+03  -.184146500189E+03
  -.184146622387E+03  -.184146740228E+03  -.184146853803E+03  -.184146963197E+03  -.184147068491E+03
  -.184147169758E+03  -.184147267067E+03  -.184147360482E+03  -.184147450061E+03  -.184147535856E+03
  -.184147617913E+03  -.184147696275E+03  -.184147770977E+03  -.184147842046E+03  -.184147909508E+03
  -.184147973378E+03  -.184148033667E+03  -.184148090380E+03  -.184148143514E+03  -.184148193059E+03
  -.184148238997E+03  -.184148281306E+03  -.184148319953E+03  -.184148354897E+03  -.184148386090E+03
  -.184148413476E+03  -.184148436987E+03  -.184148456548E+03  -.184148472073E+03  -.184148483466E+03
  -.184148490620E+03  -.184148493415E+03  -.184148491721E+03  -.184148485395E+03  -.184148474280E+03
  -.184148458204E+03  -.184148436982E+03  -.184148410412E+03  -.184148378276E+03  -.184148340338E+03
  -.184148296344E+03  -.184148246020E+03  -.184148189072E+03  -.184148125182E+03  -.184148054012E+03
  -.184147975197E+03  -.184147888346E+03  -.184147793042E+03  -.184147688836E+03  -.184147575251E+03
  -.184147451775E+03  -.184147317861E+03  -.184147172926E+03  -.184147016347E+03  -.184146847458E+03
  -.184146665551E+03  -.184146469869E+03  -.184146259604E+03  -.184146033898E+03  -.184145791834E+03
  -.184145532434E+03  -.184145254659E+03  -.184144957401E+03  -.184144639479E+03  -.184144299636E+03
  -.184143936533E+03  -.184143548747E+03  -.184143134759E+03  -.184142692957E+03  -.184142221620E+03
  -.184141718920E+03  -.184141182911E+03  -.184140611522E+03  -.184140002548E+03  -.184139353645E+03
  -.184138662318E+03  -.184137925913E+03  -.184137141605E+03  -.184136306391E+03  -.184135417075E+03
  -.184134470257E+03  -.184133462321E+03  -.184132389420E+03  -.184131247464E+03  -.184130032101E+03
  -.184128738702E+03  -.184127362344E+03  -.184125897790E+03  -.184124339474E+03  -.184122681471E+03
  -.184120917483E+03  -.184119040812E+03  -.184117044332E+03  -.184114920468E+03  -.184112661163E+03
  -.184110257848E+03  -.184107701411E+03  -.184104982163E+03  -.184102089799E+03  -.184099013363E+03
  -.184095741201E+03  -.184092260924E+03  -.184088559357E+03  -.184084622490E+03  -.184080435426E+03
  -.184075982325E+03  -.184071246346E+03  -.184066209579E+03  -.184060852983E+03  -.184055156313E+03
  -.184049098044E+03  -.184042655288E+03  -.184035803715E+03  -.184028517454E+03  -.184020769003E+03
  -.184012529122E+03  -.184003766728E+03  -.183994448775E+03  -.183984540136E+03  -.183974003468E+03
  -.183962799078E+03  -.183950884772E+03  -.183938215702E+03  -.183924744200E+03  -.183910419600E+03
  -.183895188055E+03  -.183878992340E+03  -.183861771637E+03  -.183843461319E+03  -.183823992711E+03
  -.183803292841E+03  -.183781284176E+03  -.183757884341E+03  -.183733005822E+03  -.183706555653E+03
  -.183678435080E+03  -.183648539213E+03  -.183616756649E+03  -.183582969080E+03  -.183547050878E+03
  -.183508868649E+03  -.183468280775E+03  -.183425136917E+03  -.183379277499E+03  -.183330533162E+03
  -.183278724186E+03  -.183223659882E+03  -.183165137958E+03  -.183102943838E+03  -.183036849963E+03
  -.182966615042E+03  -.182891983277E+03  -.182812683543E+03  -.182728428535E+03  -.182638913869E+03
  -.182543817151E+03  -.182442796996E+03  -.182335492015E+03  -.182221519759E+03  -.182100475614E+03
  -.181971931669E+03  -.181835435541E+03  -.181690509154E+03  -.181536647498E+03  -.181373317347E+03
  -.181199955947E+03  -.181015969690E+03  -.180820732758E+03  -.180613585763E+03  -.180393834380E+03
  -.180160747988E+03  -.179913558324E+03  -.179651458166E+03  -.179373600066E+03  -.179079095131E+03
  -.178767011896E+03  -.178436375293E+03  -.178086165742E+03  -.177715318407E+03  -.177322722628E+03
  -.176907221577E+03  -.176467612179E+03  -.176002645330E+03  -.175511026474E+03  -.174991416584E+03
  -.174442433603E+03  -.173862654420E+03  -.173250617441E+03  -.172604825830E+03  -.171923751508E+03
  -.171205839989E+03  -.170449516148E+03  -.169653191020E+03  -.168815269726E+03  -.167934160648E+03
  -.167008285939E+03  -.166036093506E+03  -.165016070573E+03  -.163946758937E+03  -.162826772047E+03
  -.161654814015E+03  -.160429700686E+03  -.159150382880E+03  -.157815971929E+03  -.156425767619E+03
  -.154979288665E+03  -.153476305842E+03  -.151916877890E+03  -.150301390340E+03  -.148630597385E+03
  -.146905666921E+03  -.145128228849E+03  -.143300426622E+03  -.141424971811E+03  -.139505201078E+03
  -.137545134133E+03  -.135549529879E+03  -.133523935505E+03  -.131474719056E+03  -.129409069111E+03
  -.127334934105E+03  -.125260857304E+03  -.123195641235E+03  -.121147752177E+03  -.119124367259E+03
  -.117128112092E+03  -.115160617163E+03  -.113217051112E+03  -.111285801760E+03  -.109351271688E+03
  -.107399145939E+03  -.105422884054E+03  -.103424038164E+03  -.101392361663E+03  -.992585164579E+02
  -.968659781977E+02  -.941224590562E+02  -.920360185655E+02  -.899716952945E+02  -.879101612134E+02
  -.858576880173E+02  -.838025896243E+02  -.817286845599E+02  -.796704075173E+02  -.776445156708E+02
 core charge-density (pseudized)
   .154387131421E-07   .164186298502E-07   .174607432413E-07   .185690010260E-07   .197476014811E-07
   .210010093543E-07   .223339727767E-07   .237515412504E-07   .252590847758E-07   .268623141953E-07
   .285673028261E-07   .303805094673E-07   .323088028672E-07   .343594877429E-07   .365403324521E-07
   .388595984210E-07   .413260714402E-07   .439490949463E-07   .467386054171E-07   .497051700124E-07
   .528600266041E-07   .562151263477E-07   .597831789551E-07   .635777008411E-07   .676130663263E-07
   .719045620891E-07   .764684450748E-07   .813220040795E-07   .864836252428E-07   .919728616985E-07
   .978105076444E-07   .104018677115E-06   .110620887753E-06   .117642149898E-06   .125109061331E-06
   .133049908031E-06   .141494771325E-06   .150475641845E-06   .160026540712E-06   .170183648413E-06
   .180985441862E-06   .192472840153E-06   .204689359573E-06   .217681278445E-06   .231497812442E-06
   .246191301020E-06   .261817405694E-06   .278435320888E-06   .296107998177E-06   .314902384758E-06
   .334889677055E-06   .356145590425E-06   .378750645980E-06   .402790475614E-06   .428356146389E-06
   .455544505517E-06   .484458547227E-06   .515207802929E-06   .547908756133E-06   .582685283709E-06
   .619669125154E-06   .659000381637E-06   .700828046731E-06   .745310570819E-06   .792616461328E-06
   .842924921067E-06   .896426527068E-06   .953323952523E-06   .101383273454E-05   .107818209063E-05
   .114661578702E-05   .121939306206E-05   .129678960827E-05   .137909861669E-05   .146663188754E-05
   .155972101135E-05   .165871862507E-05   .176399974790E-05   .187596320193E-05   .199503312290E-05
   .212166056687E-05   .225632521892E-05   .239953721019E-05   .255183905035E-05   .271380768266E-05
   .288605666949E-05   .306923851657E-05   .326404714470E-05   .347122051840E-05   .369154344138E-05
   .392585052939E-05   .417502937185E-05   .444002389402E-05   .472183793269E-05   .502153903869E-05
   .534026252085E-05   .567921574654E-05   .603968271517E-05   .642302892202E-05   .683070653064E-05
   .726425987368E-05   .772533130270E-05   .821566740931E-05   .873712564116E-05   .929168133776E-05
   .988143521287E-05   .105086213118E-04   .111756154734E-04   .118849443298E-04   .126392948764E-04
   .134415246500E-04   .142946725522E-04   .152019703599E-04   .161668549670E-04   .171929814014E-04
   .182842366697E-04   .194447544791E-04   .206789308948E-04   .219914409896E-04   .233872565516E-04
   .248716649140E-04   .264502889805E-04   .281291085220E-04   .299144828230E-04   .318131747666E-04
   .338323764465E-04   .359797364049E-04   .382633885980E-04   .406919831992E-04   .432747193570E-04
   .460213800309E-04   .489423690374E-04   .520487504454E-04   .553522904722E-04   .588655020356E-04
   .626016921327E-04   .665750122240E-04   .708005118129E-04   .752941954234E-04   .800730831915E-04
   .851552752987E-04   .905600204925E-04   .963077889500E-04   .102420349764E-03   .108920853337E-03
   .115833919009E-03   .123185728224E-03   .131004123621E-03   .139318714388E-03   .148160988306E-03
   .157564430887E-03   .167564652064E-03   .178199520901E-03   .189509308848E-03   .201536842064E-03
   .214327663380E-03   .227930204537E-03   .242395969307E-03   .257779728228E-03   .274139725648E-03
   .291537899881E-03   .310040117292E-03   .329716421185E-03   .350641296440E-03   .372893950877E-03
   .396558614411E-03   .421724857113E-03   .448487927365E-03   .476949111378E-03   .507216115412E-03
   .539403472119E-03   .573632972533E-03   .610034125309E-03   .648744644916E-03   .689910970600E-03
   .733688818048E-03   .780243765781E-03   .829751878458E-03   .882400369391E-03   .938388304704E-03
   .997927351734E-03   .106124257443E-02   .112857327865E-02   .120017391045E-02   .127631501067E-02
   .135728422927E-02   .144338740303E-02   .153494970072E-02   .163231683963E-02   .173585637796E-02
   .184595908777E-02   .196304041322E-02   .208754201948E-02   .221993343764E-02   .236071381153E-02
   .251041375259E-02   .266959730914E-02   .283886405712E-02   .301885131926E-02   .321023652053E-02
   .341373968779E-02   .363012610208E-02   .386020911260E-02   .410485312154E-02   .436497674987E-02
   .464155619420E-02   .493562878575E-02   .524829676275E-02   .558073126823E-02   .593417658551E-02
   .630995462474E-02   .670946967375E-02   .713421342749E-02   .758577031082E-02   .806582310974E-02
   .857615892701E-02   .911867547826E-02   .969538774551E-02   .103084350053E-01   .109600882487E-01
   .116527580118E-01   .123890026340E-01   .131715369631E-01   .140032415250E-01   .148871721761E-01
   .158265702573E-01   .168248732661E-01   .178857260626E-01   .190129926278E-01   .202107683857E-01
   .214833931033E-01   .228354643791E-01   .242718517268E-01   .257977112603E-01   .274185009802E-01
   .291399966577E-01   .309683083066E-01   .329098972289E-01   .349715936086E-01   .371606146238E-01
   .394845830324E-01   .419515461794E-01   .445699953560E-01   .473488854273E-01   .502976546272E-01
   .534262443974E-01   .567451191234E-01   .602652855970E-01   .639983119995E-01   .679563461674E-01
   .721521328668E-01   .765990297512E-01   .813110216359E-01   .863027326622E-01   .915894358636E-01
   .971870595777E-01   .103112190071E+00   .109382069655E+00   .116014589486E+00   .123028276123E+00
   .130442270819E+00   .138276300384E+00   .146550638326E+00   .155286054826E+00   .164503753950E+00
   .174225296313E+00   .184472505235E+00   .195267354250E+00   .206631833588E+00   .218587793067E+00
   .231156758618E+00   .244359719414E+00   .258216882392E+00   .272747390740E+00   .287969002713E+00
   .303897727008E+00   .320547410780E+00   .337929276311E+00   .356051402365E+00   .374918146316E+00
   .394529503391E+00   .414880399690E+00   .435959916230E+00   .457750441996E+00   .480226755074E+00
   .503355032280E+00   .527091789515E+00   .551382757274E+00   .576161698553E+00   .601349179754E+00
   .626851309319E+00   .652558463694E+00   .678344026001E+00   .704063169511E+00   .729551725749E+00
   .754625185840E+00   .779077893540E+00   .802682499232E+00   .825189755858E+00   .846328750084E+00
   .865807674616E+00   .883315259945E+00   .898522995161E+00   .911088276906E+00   .920658631612E+00
   .926877157393E+00   .929389326058E+00   .927851270302E+00   .921939653028E+00   .911363171524E+00
   .895875684696E+00   .875290862464E+00   .849498138087E+00   .818479592102E+00   .782327206852E+00
   .741259700509E+00   .695637878591E+00   .645977131991E+00   .592955371339E+00   .537414332653E+00
   .480351842561E+00   .422902328207E+00   .366302647242E+00   .311840263585E+00   .260780990444E+00
   .214274068056E+00   .173233362132E+00   .138195094592E+00   .109155071127E+00   .854944798507E-01
   .663944986470E-01   .511142889112E-01   .390013435812E-01   .294882431238E-01   .220876479080E-01
 pseudo wavefunction
   .443169753415E-12   .486025250956E-12   .533024970099E-12   .584569666257E-12   .641098848781E-12
   .703094528547E-12   .771085327954E-12   .845650988353E-12   .927427313374E-12   .101711159026E-11
   .111546853548E-11   .122333681528E-11   .134163619679E-11   .147137539064E-11   .161366065204E-11
   .176970521352E-11   .194083962985E-11   .212852312345E-11   .233435602673E-11   .256009342780E-11
   .280766013569E-11   .307916709269E-11   .337692937393E-11   .370348592737E-11   .406162122290E-11
   .445438899477E-11   .488513828012E-11   .535754197536E-11   .587562815412E-11   .644381441364E-11
   .706694554258E-11   .775033483137E-11   .849980937737E-11   .932175977110E-11   .102231945873E-10
   .112118001454E-10   .122960060488E-10   .134850570623E-10   .147890919395E-10   .162192298743E-10
   .177876653108E-10   .195077719229E-10   .213942166480E-10   .234630847489E-10   .257320169685E-10
   .282203599485E-10   .309493311932E-10   .339421999862E-10   .372244858022E-10   .408241759046E-10
   .447719639869E-10   .491015118899E-10   .538497366282E-10   .590571251724E-10   .647680796715E-10
   .710312960596E-10   .779001792736E-10   .854332986243E-10   .936948872024E-10   .102755389578E-09
   .112692062465E-09   .123589633467E-09   .135541023532E-09   .148648139266E-09   .163022741860E-09
   .178787400057E-09   .196076535259E-09   .215037567707E-09   .235832173494E-09   .258637663139E-09
   .283648493466E-09   .311077925686E-09   .341159843823E-09   .374150748982E-09   .410331946466E-09
   .450011944390E-09   .493529084254E-09   .541254425885E-09   .593594911369E-09   .650996834934E-09
   .713949648381E-09   .782990134504E-09   .858706984090E-09   .941745815522E-09   .103281467978E-08
   .113269009781E-08   .124222368165E-08   .136234939595E-08   .149409152154E-08   .163857338922E-08
   .179702695804E-08   .197080331986E-08   .216138421968E-08   .237039468999E-08   .259961690696E-08
   .285100538646E-08   .312670364954E-08   .342906249957E-08   .376066006672E-08   .412432379076E-08
   .452315452967E-08   .496055299955E-08   .544024877123E-08   .596633207094E-08   .654328865610E-08
   .717603806358E-08   .786997555662E-08   .863101812800E-08   .946565495167E-08   .103810027132E-07
   .113848662903E-07   .124858053018E-07   .136932070909E-07   .150173667669E-07   .164695749860E-07
   .180622142209E-07   .198088643393E-07   .217244183919E-07   .238252095964E-07   .261291506012E-07
   .286558862151E-07   .314269609057E-07   .344660024942E-07   .377989236132E-07   .414541426442E-07
   .454628260194E-07   .498591539524E-07   .546806118641E-07   .599683099878E-07   .657673338781E-07
   .721271288117E-07   .791019213571E-07   .867511817069E-07   .951401307138E-07   .104340295952E-06
   .114430121545E-06   .125495636958E-06   .137631190451E-06   .150940253455E-06   .165536302714E-06
   .181543787723E-06   .199099191698E-06   .218352195128E-06   .239466951823E-06   .262623488329E-06
   .288019238641E-06   .315870727290E-06   .346415415144E-06   .379913723659E-06   .416651254815E-06
   .456941225662E-06   .501127138216E-06   .549585707443E-06   .602730072292E-06   .661013317103E-06
   .724932333411E-06   .795032055026E-06   .871910102452E-06   .956221876215E-06   .104868614245E-05
   .115009115832E-05   .126130138943E-05   .138326487637E-05   .151702131320E-05   .166371090644E-05
   .182458409026E-05   .200101218017E-05   .219449905619E-05   .240669397468E-05   .263940561786E-05
   .289461750055E-05   .317450486500E-05   .348145320767E-05   .381807859516E-05   .418724994215E-05
   .459211344053E-05   .503611934721E-05   .552305135821E-05   .605705881831E-05   .664269203964E-05
   .728494102902E-05   .798927795245E-05   .876170369683E-05   .960879892372E-05   .105377800476E-04
   .115565606130E-04   .126738185897E-04   .138990701565E-04   .152427505960E-04   .167163029865E-04
   .183322754380E-04   .201044276964E-04   .220478480119E-04   .241790812614E-04   .265162694011E-04
   .290793054349E-04   .318900021926E-04   .349722773380E-04   .383523561608E-04   .420589938537E-04
   .461237191400E-04   .505811012896E-04   .554690427596E-04   .608290999032E-04   .667068344223E-04
   .731521984946E-04   .802199567768E-04   .879701487915E-04   .964685955308E-04   .105787454471E-03
   .116005827585E-03   .127210427360E-03   .139496306310E-03   .152967655960E-03   .167738681847E-03
   .183934561686E-03   .201692494499E-03   .221162849225E-03   .242510422094E-03   .265915812925E-03
   .291576931382E-03   .319710645249E-03   .350554583858E-03   .384369110960E-03   .421439482631E-03
   .462078207131E-03   .506627625150E-03   .555462730468E-03   .608994252763E-03   .667672026187E-03
   .731988669288E-03   .802483604044E-03   .879747444027E-03   .964426784192E-03   .105722942741E-02
   .115893008561E-02   .127037659645E-02   .139249669939E-02   .152630541859E-02   .167291310322E-02
   .183353417970E-02   .200949667393E-02   .220225256555E-02   .241338904026E-02   .264464071034E-02
   .289790287751E-02   .317524591637E-02   .347893086068E-02   .381142627848E-02   .417542652555E-02
   .457387146982E-02   .500996778193E-02   .548721188886E-02   .600941468850E-02   .658072812263E-02
   .720567370383E-02   .788917308835E-02   .863658078071E-02   .945371904707E-02   .103469151025E-01
   .113230406209E-01   .123895535956E-01   .135545425526E-01   .148267730843E-01   .162157366326E-01
   .177317013987E-01   .193857651981E-01   .211899100066E-01   .231570578576E-01   .253011276491E-01
   .276370922984E-01   .301810355454E-01   .329502075386E-01   .359630781550E-01   .392393867838E-01
   .428001870607E-01   .466678847561E-01   .508662667049E-01   .554205183062E-01   .603572267287E-01
   .657043665123E-01   .714912637804E-01   .777485347506E-01   .845079936729E-01   .918025247303E-01
   .996659118186E-01   .108132619496E+00   .117237517770E+00   .127015542792E+00   .137501285014E+00
   .148728495915E+00   .160729504138E+00   .173534531820E+00   .187170902117E+00   .201662129543E+00
   .217026885865E+00   .233277835985E+00   .250420340784E+00   .268451027289E+00   .287356231083E+00
   .307110321700E+00   .327673929084E+00   .348992098219E+00   .370992409851E+00   .393583118098E+00
   .416651370493E+00   .440061592813E+00   .463654139398E+00   .487244329335E+00   .510622008938E+00
   .533551800330E+00   .555774212943E+00   .577007807299E+00   .596952605557E+00   .615294937499E+00
   .631713889554E+00   .645889482979E+00   .657512639899E+00   .666296896425E+00   .671991684953E+00
   .674396827918E+00   .673377660158E+00   .668879927124E+00   .660943297839E+00   .649711998469E+00
   .635440739369E+00   .618493813187E+00   .599335038189E+00   .578506181280E+00   .556591709476E+00
   .534168292339E+00   .511738525204E+00   .489649972539E+00   .468018344882E+00   .446844854639E+00
 ae wavefunction
   .290743485819E-09   .317143897068E-09   .345696513897E-09   .376596061706E-09   .410053503810E-09
   .446297517345E-09   .485576095754E-09   .528158289436E-09   .574336097020E-09   .624426521812E-09
   .678773807256E-09   .737751869207E-09   .801766941832E-09   .871260457267E-09   .946712179993E-09
   .102864361949E-08   .111762174616E-08   .121426303817E-08   .131923788978E-08   .143327541376E-08
   .155716867362E-08   .169178038538E-08   .183804913156E-08   .199699613382E-08   .216973263581E-08
   .235746795173E-08   .256151824163E-08   .278331608008E-08   .302442089063E-08   .328653032604E-08
   .357149268056E-08   .388132042945E-08   .421820499937E-08   .458453288277E-08   .498290322035E-08
   .541614698692E-08   .588734792837E-08   .639986541203E-08   .695735936673E-08   .756381750643E-08
   .822358504830E-08   .894139715713E-08   .972241436815E-08   .105722612654E-07   .114970687172E-07
   .125035200004E-07   .135989011741E-07   .147911560987E-07   .160889465331E-07   .175017177831E-07
   .190397704183E-07   .207143386243E-07   .225376758091E-07   .245231481412E-07   .266853367605E-07
   .290401494739E-07   .316049428207E-07   .343986554795E-07   .374419540785E-07   .407573925695E-07
   .443695864372E-07   .483054031335E-07   .525941702583E-07   .572679031501E-07   .623615537075E-07
   .679132824331E-07   .739647558784E-07   .805614718751E-07   .877531151595E-07   .955939462441E-07
   .104143226658E-06   .113465683974E-06   .123632020348E-06   .134719468679E-06   .146812400837E-06
   .160002992860E-06   .174391952486E-06   .190089314837E-06   .207215312697E-06   .225901328354E-06
   .246290934683E-06   .268541033841E-06   .292823102738E-06   .319324555301E-06   .348250232482E-06
   .379824032003E-06   .414290690940E-06   .451917735459E-06   .492997613377E-06   .537850026679E-06
   .586824482702E-06   .640303084465E-06   .698703582493E-06   .762482712633E-06   .832139846545E-06
   .908220984106E-06   .991323119623E-06   .108209901678E-05   .118126243036E-05   .128959381644E-05
   .140794657652E-05   .153725388526E-05   .167853615607E-05   .183290920390E-05   .200159316982E-05
   .218592227816E-05   .238735550324E-05   .260748823000E-05   .284806500036E-05   .311099344562E-05
   .339835951445E-05   .371244411562E-05   .405574130608E-05   .443097816617E-05   .484113651706E-05
   .528947664929E-05   .577956324666E-05   .631529370613E-05   .690092907261E-05   .754112782698E-05
   .824098278699E-05   .900606140408E-05   .984244976391E-05   .107568006262E-04   .117563858685E-04
   .128491537319E-04   .140437913000E-04   .153497926816E-04   .167775334086E-04   .183383516044E-04
   .200446365268E-04   .219099251426E-04   .239490074451E-04   .261780412903E-04   .286146775910E-04
   .312781967811E-04   .341896575397E-04   .373720588469E-04   .408505165352E-04   .446524555957E-04
   .488078196053E-04   .533492987520E-04   .583125780574E-04   .637366075292E-04   .696638961115E-04
   .761408314579E-04   .832180277112E-04   .909507036473E-04   .993990937307E-04   .108628894825E-03
   .118711751517E-03   .129725783243E-03   .141756156651E-03   .154895706876E-03   .169245611725E-03
   .184916122999E-03   .202027359557E-03   .220710167019E-03   .241107049363E-03   .263373178060E-03
   .287677484765E-03   .314203844005E-03   .343152352743E-03   .374740714148E-03   .409205733387E-03
   .446804933753E-03   .487818301955E-03   .532550171967E-03   .581331257351E-03   .634520842600E-03
   .692509144588E-03   .755719855875E-03   .824612882200E-03   .899687287136E-03   .981484457526E-03
   .107059150392E-02   .116764491093E-02   .127333445284E-02   .138840739083E-02   .151367296803E-02
   .165000722004E-02   .179835811811E-02   .195975106338E-02   .213529475035E-02   .232618741831E-02
   .253372350955E-02   .275930075293E-02   .300442769177E-02   .327073167412E-02   .355996732338E-02
   .387402550635E-02   .421494281475E-02   .458491157517E-02   .498629040056E-02   .542161529468E-02
   .589361131832E-02   .640520482362E-02   .695953625921E-02   .755997354550E-02   .821012601470E-02
   .891385890548E-02   .967530839642E-02   .104988971560E-01   .113893503798E-01   .123517122780E-01
   .133913629666E-01   .145140357074E-01   .157258344298E-01   .170332514579E-01   .184431853516E-01
   .199629587596E-01   .216003361669E-01   .233635414050E-01   .252612747781E-01   .273027296432E-01
   .294976082666E-01   .318561367616E-01   .343890788983E-01   .371077485559E-01   .400240205661E-01
   .431503396707E-01   .464997272749E-01   .500857856277E-01   .539226989877E-01   .580252312402E-01
   .624087193290E-01   .670890617600E-01   .720827013619E-01   .774066014717E-01   .830782147809E-01
   .891154442440E-01   .955365956824E-01   .102360321993E+00   .109605559121E+00   .117291454119E+00
   .125437285657E+00   .134062377145E+00   .143186002351E+00   .152827282935E+00   .163005077066E+00
   .173737858217E+00   .185043583407E+00   .196939550508E+00   .209442244520E+00   .222567172946E+00
   .236328690508E+00   .250739813497E+00   .265812024137E+00   .281555065455E+00   .297976727368E+00
   .315082624926E+00   .332875969998E+00   .351357338011E+00   .370524431759E+00   .390371844702E+00
   .410890826577E+00   .432069054598E+00   .453890413872E+00   .476334791012E+00   .499377885186E+00
   .522991040910E+00   .547141106879E+00   .571790324880E+00   .596896252515E+00   .622411723141E+00
   .648284846420E+00   .674459053632E+00   .700873193916E+00   .727461691493E+00   .754154779677E+00
   .780878833872E+00   .807556828724E+00   .834108935642E+00   .860453241997E+00   .886506498342E+00
   .912184686644E+00   .937403096565E+00   .962075607669E+00   .986113129009E+00   .100942167305E+01
   .103190111914E+01   .105344583503E+01   .107394748658E+01   .109329897818E+01   .111139787717E+01
   .112814845292E+01   .114346256216E+01   .115726003097E+01   .116946900803E+01   .118002646526E+01
   .118887883071E+01   .119598265524E+01   .120130520305E+01   .120482487873E+01   .120653144211E+01
   .120642599701E+01   .120452076569E+01   .120083867497E+01   .119541278593E+01   .118828559996E+01
   .117950827172E+01   .116913975771E+01   .115724592526E+01   .114389864413E+01   .112917487960E+01
   .111315580232E+01   .109592592756E+01   .107757229220E+01   .105818367577E+01   .103784986853E+01
   .101666098759E+01   .994706840706E+00   .972076336857E+00   .948856942356E+00   .925134183565E+00
   .900991194335E+00   .876508243864E+00   .851762198539E+00   .826826466725E+00   .801770802990E+00
   .776661134097E+00   .751559437481E+00   .726523663051E+00   .701607692403E+00   .676861325222E+00
   .652330285754E+00   .628056245620E+00   .604076865344E+00   .580425862344E+00   .557133116999E+00
   .534224828349E+00   .511723727271E+00   .489649347251E+00   .468018344882E+00   .446844854639E+00
 pseudo wavefunction
  -.118249215019E-12  -.129684176221E-12  -.142224923513E-12  -.155978388862E-12  -.171061844791E-12
  -.187603904334E-12  -.205745617694E-12  -.225641674938E-12  -.247461725006E-12  -.271391822266E-12
  -.297636012956E-12  -.326418075036E-12  -.357983426290E-12  -.392601216946E-12  -.430566624652E-12
  -.472203371392E-12  -.517866483779E-12  -.567945320284E-12  -.622866891207E-12  -.683099499685E-12
  -.749156734806E-12  -.821601850857E-12  -.901052570060E-12  -.988186349741E-12  -.108374615885E-11
  -.118854681306E-11  -.130348192255E-11  -.142953151154E-11  -.156777037479E-11  -.171937724205E-11
  -.188564482887E-11  -.206799085923E-11  -.226797015415E-11  -.248728788925E-11  -.272781413441E-11
  -.299159979939E-11  -.328089412143E-11  -.359816384395E-11  -.394611424990E-11  -.432771222904E-11
  -.474621157586E-11  -.520518073397E-11  -.570853322328E-11  -.626056100964E-11  -.686597110144E-11
  -.752992568507E-11  -.825808614165E-11  -.905666132023E-11  -.993246047912E-11  -.108929513468E-10
  -.119463237973E-10  -.131015596833E-10  -.143685094224E-10  -.157579759888E-10  -.172818070276E-10
  -.189529958771E-10  -.207857923596E-10  -.227958242856E-10  -.250002307090E-10  -.274178080669E-10
  -.300691704524E-10  -.329769253854E-10  -.361658665817E-10  -.396631853619E-10  -.434987025057E-10
  -.477051225252E-10  -.523183125283E-10  -.573776080479E-10  -.629261484460E-10  -.690112447511E-10
  -.756847830673E-10  -.830036669931E-10  -.910303028230E-10  -.998331316691E-10  -.109487213040E-09
  -.120074864851E-09  -.131686365330E-09  -.144420722790E-09  -.158386519848E-09  -.173702839277E-09
  -.190500279390E-09  -.208922067614E-09  -.229125281748E-09  -.251282189321E-09  -.275581716459E-09
  -.302231058807E-09  -.331457448214E-09  -.363510090277E-09  -.398662289227E-09  -.437213778313E-09
  -.479493275522E-09  -.525861286451E-09  -.576713178212E-09  -.632482550587E-09  -.693644933181E-09
  -.760721840087E-09  -.834285216644E-09  -.914962316193E-09  -.100344104842E-08  -.110047584490E-08
  -.120689409180E-08  -.132360318467E-08  -.145159826539E-08  -.159197070735E-08  -.174591742101E-08
  -.191475105946E-08  -.209991121074E-08  -.230297667247E-08  -.252567891345E-08  -.276991683695E-08
  -.303777297162E-08  -.333153122795E-08  -.365369637188E-08  -.400701538129E-08  -.439450086776E-08
  -.481945676306E-08  -.528550648942E-08  -.579662385385E-08  -.635716692974E-08  -.697191521464E-08
  -.764611038111E-08  -.838550096788E-08  -.919639139240E-08  -.100856957026E-07  -.110609965261E-07
  -.121306097192E-07  -.133036552673E-07  -.145901350404E-07  -.160010180668E-07  -.175483340522E-07
  -.192452759409E-07  -.211063123932E-07  -.231473111388E-07  -.253856742556E-07  -.278404865286E-07
  -.305326781533E-07  -.334852031686E-07  -.367232351419E-07  -.402743817727E-07  -.441689202440E-07
  -.484400553269E-07  -.531242024385E-07  -.582612980627E-07  -.638951401819E-07  -.700737616182E-07
  -.768498394639E-07  -.842811440923E-07  -.924310315706E-07  -.101368983671E-06  -.111171200079E-06
  -.121921247843E-06  -.133710773596E-06  -.146640284615E-06  -.160820005365E-06  -.176370816827E-06
  -.193425286603E-06  -.212128798564E-06  -.232640791663E-06  -.255136118447E-06  -.279806534841E-06
  -.306862333867E-06  -.336534137200E-06  -.369074859812E-06  -.404761864392E-06  -.443899323882E-06
  -.486820812200E-06  -.533892145182E-06  -.585514495885E-06  -.642127810714E-06  -.704214555406E-06
  -.772303822679E-06  -.846975836412E-06  -.928866890618E-06  -.101867476509E-05  -.111716466371E-05
  -.122517572567E-05  -.134362816504E-05  -.147353109885E-05  -.161599113038E-05  -.177222175995E-05
  -.194355370328E-05  -.213144620432E-05  -.233749943847E-05  -.256346811094E-05  -.281127636512E-05
  -.308303412674E-05  -.338105502179E-05  -.370787601926E-05  -.406627896411E-05  -.445931418171E-05
  -.489032635243E-05  -.536298287364E-05  -.588130494731E-05  -.644970165396E-05  -.707300729841E-05
  -.775652233986E-05  -.850605824847E-05  -.932798666277E-05  -.102292932579E-04  -.112176367727E-04
  -.123014136871E-04  -.134898290851E-04  -.147929742915E-04  -.162219119240E-04  -.177887690613E-04
  -.195068392961E-04  -.213906945096E-04  -.234563072836E-04  -.257211849522E-04  -.282045163828E-04
  -.309273326811E-04  -.339126831215E-04  -.371858277211E-04  -.407744480089E-04  -.447088776755E-04
  -.490223549453E-04  -.537512986750E-04  -.589356103594E-04  -.646190044205E-04  -.708493693612E-04
  -.776791625915E-04  -.851658419772E-04  -.933723374194E-04  -.102367566058E-03  -.112226994989E-03
  -.123033255711E-03  -.134876814864E-03  -.147856706178E-03  -.162081328967E-03  -.177669318891E-03
  -.194750497176E-03  -.213466904915E-03  -.233973929608E-03  -.256441531551E-03  -.281055578266E-03
  -.308019295692E-03  -.337554845402E-03  -.369905037723E-03  -.405335191183E-03  -.444135149274E-03
  -.486621466120E-03  -.533139773114E-03  -.584067339108E-03  -.639815837184E-03  -.700834331326E-03
  -.767612496621E-03  -.840684086646E-03  -.920630661677E-03  -.100808559099E-02  -.110373834199E-02
  -.120833906793E-02  -.132270350470E-02  -.144771818520E-02  -.158434597755E-02  -.173363194995E-02
  -.189670956128E-02  -.207480717112E-02  -.226925485702E-02  -.248149151870E-02  -.271307224007E-02
  -.296567586825E-02  -.324111275566E-02  -.354133259498E-02  -.386843225790E-02  -.422466352620E-02
  -.461244057711E-02  -.503434705477E-02  -.549314252306E-02  -.599176805455E-02  -.653335066192E-02
  -.712120622373E-02  -.775884049381E-02  -.844994771238E-02  -.919840625607E-02  -.100082706738E-01
  -.108837593537E-01  -.118292369525E-01  -.128491905965E-01  -.139481987222E-01  -.151308912808E-01
  -.164018998671E-01  -.177657961669E-01  -.192270169356E-01  -.207897735420E-01  -.224579439266E-01
  -.242349446442E-01  -.261235804989E-01  -.281258691348E-01  -.302428378391E-01  -.324742897577E-01
  -.348185367377E-01  -.372720961143E-01  -.398293489877E-01  -.424821579082E-01  -.452194424554E-01
  -.480267119824E-01  -.508855558632E-01  -.537730929580E-01  -.566613837581E-01  -.595168108278E-01
  -.622994357621E-01  -.649623439622E-01  -.674509920846E-01  -.697025770444E-01  -.716454498570E-01
  -.731986022911E-01  -.742712590597E-01  -.747626128232E-01  -.745617432045E-01  -.735477637888E-01
  -.715902420064E-01  -.685499350210E-01  -.642798792621E-01  -.586268608977E-01  -.514332781125E-01
  -.425393823508E-01  -.317858536629E-01  -.190166243963E-01  -.408181586486E-02   .131594042692E-01
   .328362971349E-01   .550646728583E-01   .799460170012E-01   .107568009190E+00   .138006802894E+00
   .171331353357E+00   .207609905629E+00   .246918454593E+00   .289350531127E+00   .335027024725E+00
   .384103906891E+00   .436774680003E+00   .493263191226E+00   .553814781470E+00   .618772045579E+00
 ae wavefunction
  -.972588500027E-10  -.106090263074E-09  -.115641627351E-09  -.125978082004E-09  -.137170198083E-09
  -.149294472228E-09  -.162433862733E-09  -.176678371826E-09  -.192125678333E-09  -.208881825598E-09
  -.227061969286E-09  -.246791191019E-09  -.268205383486E-09  -.291452213734E-09  -.316692171675E-09
  -.344099711688E-09  -.373864495654E-09  -.406192746702E-09  -.441308723887E-09  -.479456328663E-09
  -.520900855188E-09  -.565930897648E-09  -.614860428963E-09  -.668031066356E-09  -.725814541052E-09
  -.788615390678E-09  -.856873894742E-09  -.931069275554E-09  -.101172318873E-08  -.109940353010E-08
  -.119472858783E-08  -.129837157165E-08  -.141106555384E-08  -.153360885974E-08  -.166687094948E-08
  -.181179883594E-08  -.196942408862E-08  -.214087047742E-08  -.232736231566E-08  -.253023356679E-08
  -.275093778571E-08  -.299105897198E-08  -.325232341947E-08  -.353661265490E-08  -.384597756652E-08
  -.418265383340E-08  -.454907877645E-08  -.494790976330E-08  -.538204431193E-08  -.585464205128E-08
  -.636914871192E-08  -.692932233629E-08  -.753926191559E-08  -.820343868008E-08  -.892673029063E-08
  -.971445820274E-08  -.105724284999E-07  -.115069765205E-07  -.125250156344E-07  -.136340905561E-07
  -.148424356214E-07  -.161590384909E-07  -.175937097905E-07  -.191571592449E-07  -.208610789125E-07
  -.227182341898E-07  -.247425633117E-07  -.269492861477E-07  -.293550231651E-07  -.319779255134E-07
  -.348378172752E-07  -.379563510262E-07  -.413571779526E-07  -.450661338943E-07  -.491114428104E-07
  -.535239393000E-07  -.583373119736E-07  -.635883696258E-07  -.693173323583E-07  -.755681499892E-07
  -.823888503147E-07  -.898319200230E-07  -.979547213277E-07  -.106819947670E-06  -.116496122153E-06
  -.127058142725E-06  -.138587878481E-06  -.151174821889E-06  -.164916802169E-06  -.179920765564E-06
  -.196303628756E-06  -.214193212281E-06  -.233729261425E-06  -.255064562776E-06  -.278366165386E-06
  -.303816716297E-06  -.331615921120E-06  -.361982141341E-06  -.395154141078E-06  -.431392997243E-06
  -.470984188317E-06  -.514239878341E-06  -.561501414297E-06  -.613142056696E-06  -.669569965010E-06
  -.731231461597E-06  -.798614599917E-06  -.872253065204E-06  -.952730438342E-06  -.104068485650E-05
  -.113681410710E-05  -.124188119519E-05  -.135672042754E-05  -.148224406131E-05  -.161944956883E-05
  -.176942757523E-05  -.193337053035E-05  -.211258218222E-05  -.230848792520E-05  -.252264610262E-05
  -.275676035068E-05  -.301269307832E-05  -.329248018606E-05  -.359834713600E-05  -.393272649505E-05
  -.429827708434E-05  -.469790487930E-05  -.513478581773E-05  -.561239068675E-05  -.613451227472E-05
  -.670529498993E-05  -.732926716580E-05  -.801137629088E-05  -.875702742275E-05  -.957212506673E-05
  -.104631188245E-04  -.114370531437E-04  -.125016215269E-04  -.136652255895E-04  -.149370393873E-04
  -.163270794717E-04  -.178462811650E-04  -.195065815922E-04  -.213210100478E-04  -.233037863236E-04
  -.254704276727E-04  -.278378651425E-04  -.304245700635E-04  -.332506915469E-04  -.363382059075E-04
  -.397110790028E-04  -.433954425539E-04  -.474197855946E-04  -.518151622856E-04  -.566154174174E-04
  -.618574310316E-04  -.675813836869E-04  -.738310440144E-04  -.806540803186E-04  -.881023981098E-04
  -.962325055814E-04  -.105105909185E-03  -.114789541604E-03  -.125356224575E-03  -.136885169173E-03
  -.149462516333E-03  -.163181920573E-03  -.178145180036E-03  -.194462916188E-03  -.212255306688E-03
  -.231652875126E-03  -.252797341574E-03  -.275842538047E-03  -.300955393235E-03  -.328316991029E-03
  -.358123707616E-03  -.390588432089E-03  -.425941875757E-03  -.464433975513E-03  -.506335396802E-03
  -.551939141939E-03  -.601562269633E-03  -.655547731757E-03  -.714266333478E-03  -.778118822975E-03
  -.847538116967E-03  -.922991668335E-03  -.100498398201E-02  -.109405928524E-02  -.119080435811E-02
  -.129585153005E-02  -.140988184754E-02  -.153362841808E-02  -.166787993448E-02  -.181348438355E-02
  -.197135294163E-02  -.214246405929E-02  -.232786773575E-02  -.252868998273E-02  -.274613747566E-02
  -.298150238881E-02  -.323616740855E-02  -.351161091730E-02  -.380941233789E-02  -.413125762563E-02
  -.447894489216E-02  -.485439014229E-02  -.525963310092E-02  -.569684310370E-02  -.616832502055E-02
  -.667652517702E-02  -.722403723329E-02  -.781360797607E-02  -.844814297314E-02  -.913071203529E-02
  -.986455442473E-02  -.106530837437E-01  -.114998924317E-01  -.124087557915E-01  -.133836354607E-01
  -.144286822307E-01  -.155482381066E-01  -.167468374803E-01  -.180292072679E-01  -.194002658277E-01
  -.208651204429E-01  -.224290631174E-01  -.240975644063E-01  -.258762649997E-01  -.277709647977E-01
  -.297876092715E-01  -.319322729820E-01  -.342111402189E-01  -.366304828047E-01  -.391966351669E-01
  -.419159667859E-01  -.447948520716E-01  -.478396376093E-01  -.510566065795E-01  -.544519400566E-01
  -.580316748726E-01  -.618016577906E-01  -.657674958449E-01  -.699345028025E-01  -.743076417762E-01
  -.788914640521E-01  -.836900442159E-01  -.887069116882E-01  -.939449788174E-01  -.994064657489E-01
  -.105092822372E+00  -.111004647753E+00  -.117141607581E+00  -.123502350278E+00  -.130084422572E+00
  -.136884185461E+00  -.143896731637E+00  -.151115805577E+00  -.158533727621E+00  -.166141323420E+00
  -.173927860202E+00  -.181880991257E+00  -.189986709992E+00  -.198229314786E+00  -.206591385766E+00
  -.215053774625E+00  -.223595608862E+00  -.232194312468E+00  -.240825646377E+00  -.249463773888E+00
  -.258081358340E+00  -.266649701251E+00  -.275138926112E+00  -.283518201441E+00  -.291755971824E+00
  -.299820129041E+00  -.307678020159E+00  -.315296194889E+00  -.322639878249E+00  -.329672327412E+00
  -.336354419477E+00  -.342644850230E+00  -.348501046153E+00  -.353880438591E+00  -.358741561140E+00
  -.363044689514E+00  -.366752102564E+00  -.369828177557E+00  -.372239473189E+00  -.373954856132E+00
  -.374945664369E+00  -.375185874222E+00  -.374652234605E+00  -.373324339995E+00  -.371184626286E+00
  -.368218285165E+00  -.364413100839E+00  -.359759217437E+00  -.354248847119E+00  -.347875929137E+00
  -.340635749071E+00  -.332524526809E+00  -.323538980309E+00  -.313675871165E+00  -.302931536658E+00
  -.291301411666E+00  -.278779542588E+00  -.265358094003E+00  -.251026847769E+00  -.235772693145E+00
  -.219579105657E+00  -.202425611878E+00  -.184287236920E+00  -.165133931093E+00  -.144929972430E+00
  -.123633340739E+00  -.101195050828E+00  -.775584395587E-01  -.526584682413E-01  -.264209409367E-01
   .123834498996E-02   .304145210360E-01   .612146573244E-01   .937588737684E-01   .128181567965E+00
   .164632775588E+00   .203279680473E+00   .244308295091E+00   .287925338759E+00   .334360351516E+00
   .383868095674E+00   .436731313639E+00   .493263927403E+00   .553814781470E+00   .618772045579E+00
 pseudo wavefunction
   .275057498578E-04   .283652356752E-04   .292515782726E-04   .301656168572E-04   .311082168594E-04
   .320802707518E-04   .330826988949E-04   .341164504080E-04   .351825040680E-04   .362818692361E-04
   .374155868136E-04   .385847302274E-04   .397904064461E-04   .410337570286E-04   .423159592044E-04
   .436382269885E-04   .450018123311E-04   .464080063024E-04   .478581403154E-04   .493535873867E-04
   .508957634358E-04   .524861286265E-04   .541261887489E-04   .558174966453E-04   .575616536805E-04
   .593603112580E-04   .612151723833E-04   .631279932769E-04   .651005850366E-04   .671348153525E-04
   .692326102755E-04   .713959560406E-04   .736269009479E-04   .759275573016E-04   .783001034103E-04
   .807467856492E-04   .832699205872E-04   .858718971803E-04   .885551790333E-04   .913223067325E-04
   .941759002515E-04   .971186614313E-04   .100153376539E-03   .103282918905E-03   .106510251645E-03
   .109838430464E-03   .113270606551E-03   .116810029562E-03   .120460050695E-03   .124224125866E-03
   .128105818981E-03   .132108805307E-03   .136236874956E-03   .140493936469E-03   .144884020523E-03
   .149411283741E-03   .154080012632E-03   .158894627647E-03   .163859687364E-03   .168979892809E-03
   .174260091901E-03   .179705284045E-03   .185320624866E-03   .191111431090E-03   .197083185576E-03
   .203241542512E-03   .209592332765E-03   .216141569400E-03   .222895453380E-03   .229860379432E-03
   .237042942100E-03   .244449941997E-03   .252088392237E-03   .259965525076E-03   .268088798763E-03
   .276465904600E-03   .285104774223E-03   .294013587116E-03   .303200778352E-03   .312675046580E-03
   .322445362263E-03   .332520976173E-03   .342911428144E-03   .353626556113E-03   .364676505430E-03
   .376071738463E-03   .387823044511E-03   .399941550013E-03   .412438729087E-03   .425326414394E-03
   .438616808340E-03   .452322494635E-03   .466456450203E-03   .481032057473E-03   .496063117050E-03
   .511563860782E-03   .527548965236E-03   .544033565596E-03   .561033269998E-03   .578564174301E-03
   .596642877338E-03   .615286496628E-03   .634512684588E-03   .654339645247E-03   .674786151487E-03
   .695871562816E-03   .717615843705E-03   .740039582493E-03   .763164010882E-03   .787011024047E-03
   .811603201366E-03   .836963827809E-03   .863116915985E-03   .890087228885E-03   .917900303336E-03
   .946582474183E-03   .976160899235E-03   .100666358498E-02   .103811941312E-02   .107055816792E-02
   .110401056443E-02   .113850827754E-02   .117408397204E-02   .121077133352E-02   .124860510032E-02
   .128762109637E-02   .132785626519E-02   .136934870488E-02   .141213770418E-02   .145626377972E-02
   .150176871443E-02   .154869559707E-02   .159708886312E-02   .164699433685E-02   .169845927476E-02
   .175153241037E-02   .180626400040E-02   .186270587240E-02   .192091147391E-02   .198093592308E-02
   .204283606095E-02   .210667050535E-02   .217249970647E-02   .224038600417E-02   .231039368713E-02
   .238258905381E-02   .245704047536E-02   .253381846045E-02   .261299572219E-02   .269464724714E-02
   .277885036648E-02   .286568482936E-02   .295523287871E-02   .304757932924E-02   .314281164804E-02
   .324102003767E-02   .334229752183E-02   .344674003377E-02   .355444650750E-02   .366551897183E-02
   .378006264740E-02   .389818604678E-02   .402000107774E-02   .414562314973E-02   .427517128382E-02
   .440876822604E-02   .454654056433E-02   .468861884925E-02   .483513771844E-02   .498623602513E-02
   .514205697063E-02   .530274824111E-02   .546846214876E-02   .563935577737E-02   .581559113266E-02
   .599733529734E-02   .618476059119E-02   .637804473629E-02   .657737102750E-02   .678292850851E-02
   .699491215350E-02   .721352305473E-02   .743896861622E-02   .767146275362E-02   .791122610074E-02
   .815848622266E-02   .841347783597E-02   .867644303612E-02   .894763153229E-02   .922730089004E-02
   .951571678198E-02   .981315324674E-02   .101198929566E-01   .104362274943E-01   .107624576384E-01
   .110988936596E-01   .114458556257E-01   .118036737178E-01   .121726885573E-01   .125532515437E-01
   .129457252046E-01   .133504835576E-01   .137679124847E-01   .141984101205E-01   .146423872538E-01
   .151002677434E-01   .155724889489E-01   .160595021778E-01   .165617731480E-01   .170797824676E-01
   .176140261335E-01   .181650160469E-01   .187332805501E-01   .193193649828E-01   .199238322600E-01
   .205472634729E-01   .211902585128E-01   .218534367205E-01   .225374375618E-01   .232429213299E-01
   .239705698781E-01   .247210873813E-01   .254952011317E-01   .262936623674E-01   .271172471370E-01
   .279667572031E-01   .288430209852E-01   .297468945461E-01   .306792626230E-01   .316410397066E-01
   .326331711719E-01   .336566344624E-01   .347124403322E-01   .358016341494E-01   .369252972650E-01
   .380845484508E-01   .392805454117E-01   .405144863773E-01   .417876117776E-01   .431012060087E-01
   .444565992954E-01   .458551696562E-01   .472983449781E-01   .487876052101E-01   .503244846819E-01
   .519105745572E-01   .535475254323E-01   .552370500880E-01   .569809264076E-01   .587810004718E-01
   .606391898426E-01   .625574870507E-01   .645379632989E-01   .665827723982E-01   .686941549513E-01
   .708744428012E-01   .731260637618E-01   .754515466508E-01   .778535266428E-01   .803347509642E-01
   .828980849511E-01   .855465184923E-01   .882831728792E-01   .911113080868E-01   .940343305086E-01
   .970558011677E-01   .100179444428E+00   .103409157226E+00   .106749018846E+00   .110203301252E+00
   .113776479997E+00   .117473245717E+00   .121298516220E+00   .125257449168E+00   .129355455337E+00
   .133598212456E+00   .137991679570E+00   .142542111902E+00   .147256076145E+00   .152140466087E+00
   .157202518484E+00   .162449829014E+00   .167890368153E+00   .173532496747E+00   .179384981004E+00
   .185457006597E+00   .191758191465E+00   .198298596851E+00   .205088736006E+00   .212139579909E+00
   .219462559204E+00   .227069561447E+00   .234972922604E+00   .243185411543E+00   .251720206111E+00
   .260590859159E+00   .269811252625E+00   .279395537570E+00   .289358057742E+00   .299713253975E+00
   .310475546402E+00   .321659191108E+00   .333278107553E+00   .345345672704E+00   .357874477525E+00
   .370876041123E+00   .384360477641E+00   .398336110741E+00   .412809030463E+00   .427782587276E+00
   .443256818359E+00   .459227801637E+00   .475686933831E+00   .492620129977E+00   .510006943430E+00
   .527819607613E+00   .546022003565E+00   .564568561012E+00   .583403105229E+00   .602457667484E+00
   .621651283554E+00   .640888812661E+00   .660059818230E+00   .679037562193E+00   .697678175868E+00
   .715820082625E+00   .733283760118E+00   .749871942190E+00   .765370371755E+00   .779549224844E+00
   .792165330885E+00   .802965313264E+00   .811689764792E+00   .818092101328E+00   .822100752186E+00
 ae wavefunction
  -.899198353841E-03  -.926712521187E-03  -.955066450255E-03  -.984285638958E-03  -.101439635132E-02
  -.104542563998E-02  -.107740136938E-02  -.111035223955E-02  -.114430781055E-02  -.117929852763E-02
  -.121535574704E-02  -.125251176256E-02  -.129079983278E-02  -.133025420905E-02  -.137091016429E-02
  -.141280402248E-02  -.145597318897E-02  -.150045618161E-02  -.154629266272E-02  -.159352347183E-02
  -.164219065935E-02  -.169233752109E-02  -.174400863366E-02  -.179724989080E-02  -.185210854063E-02
  -.190863322383E-02  -.196687401281E-02  -.202688245183E-02  -.208871159815E-02  -.215241606412E-02
  -.221805206039E-02  -.228567744012E-02  -.235535174418E-02  -.242713624757E-02  -.250109400678E-02
  -.257728990833E-02  -.265579071839E-02  -.273666513352E-02  -.281998383256E-02  -.290581952963E-02
  -.299424702829E-02  -.308534327685E-02  -.317918742486E-02  -.327586088067E-02  -.337544737027E-02
  -.347803299720E-02  -.358370630361E-02  -.369255833253E-02  -.380468269119E-02  -.392017561554E-02
  -.403913603582E-02  -.416166564322E-02  -.428786895766E-02  -.441785339653E-02  -.455172934446E-02
  -.468961022412E-02  -.483161256783E-02  -.497785609014E-02  -.512846376124E-02  -.528356188103E-02
  -.544328015406E-02  -.560775176491E-02  -.577711345430E-02  -.595150559549E-02  -.613107227119E-02
  -.631596135059E-02  -.650632456660E-02  -.670231759308E-02  -.690410012192E-02  -.711183593981E-02
  -.732569300460E-02  -.754584352100E-02  -.777246401539E-02  -.800573540968E-02  -.824584309382E-02
  -.849297699682E-02  -.874733165594E-02  -.900910628387E-02  -.927850483344E-02  -.955573605970E-02
  -.984101357881E-02  -.101345559236E-01  -.104365865952E-01  -.107473341103E-01  -.110670320437E-01
  -.113959190656E-01  -.117342389731E-01  -.120822407151E-01  -.124401784105E-01  -.128083113584E-01
  -.131869040403E-01  -.135762261130E-01  -.139765523913E-01  -.143881628210E-01  -.148113424389E-01
  -.152463813215E-01  -.156935745191E-01  -.161532219760E-01  -.166256284347E-01  -.171111033226E-01
  -.176099606218E-01  -.181225187176E-01  -.186491002274E-01  -.191900318064E-01  -.197456439295E-01
  -.203162706469E-01  -.209022493132E-01  -.215039202859E-01  -.221216265937E-01  -.227557135704E-01
  -.234065284540E-01  -.240744199475E-01  -.247597377397E-01  -.254628319830E-01  -.261840527262E-01
  -.269237492988E-01  -.276822696445E-01  -.284599596010E-01  -.292571621217E-01  -.300742164383E-01
  -.309114571583E-01  -.317692132962E-01  -.326478072329E-01  -.335475536006E-01  -.344687580886E-01
  -.354117161665E-01  -.363767117199E-01  -.373640155947E-01  -.383738840454E-01  -.394065570825E-01
  -.404622567149E-01  -.415411850820E-01  -.426435224698E-01  -.437694252084E-01  -.449190234428E-01
  -.460924187738E-01  -.472896817634E-01  -.485108492991E-01  -.497559218126E-01  -.510248603468E-01
  -.523175834670E-01  -.536339640107E-01  -.549738256715E-01  -.563369394121E-01  -.577230197024E-01
  -.591317205784E-01  -.605626315184E-01  -.620152731321E-01  -.634890926619E-01  -.649834592915E-01
  -.664976592625E-01  -.680308907969E-01  -.695822588252E-01  -.711507695225E-01  -.727353246532E-01
  -.743347157283E-01  -.759476179799E-01  -.775725841588E-01  -.792080381632E-01  -.808522685079E-01
  -.825034216460E-01  -.841594951571E-01  -.858183308173E-01  -.874776075715E-01  -.891348344283E-01
  -.907873433036E-01  -.924322818408E-01  -.940666062386E-01  -.956870741239E-01  -.972902375081E-01
  -.988724358728E-01  -.100429789432E+00  -.101958192628E+00  -.103453307915E+00  -.104910559905E+00
  -.106325129937E+00  -.107691951151E+00  -.109005704157E+00  -.110260813372E+00  -.111451444148E+00
  -.112571500771E+00  -.113614625463E+00  -.114574198488E+00  -.115443339510E+00  -.116214910326E+00
  -.116881519111E+00  -.117435526347E+00  -.117869052568E+00  -.118173988109E+00  -.118342005016E+00
  -.118364571301E+00  -.118232967726E+00  -.117938307303E+00  -.117471557703E+00  -.116823566767E+00
  -.115985091322E+00  -.114946829481E+00  -.113699456641E+00  -.112233665352E+00  -.110540209243E+00
  -.108609951173E+00  -.106433915777E+00  -.104003346530E+00  -.101309767468E+00  -.983450496627E-01
  -.951014825035E-01  -.915718498506E-01  -.877495110385E-01  -.836284866986E-01  -.792035493055E-01
  -.744703183056E-01  -.694253596226E-01  -.640662892686E-01  -.583918807179E-01  -.524021756178E-01
  -.460985973220E-01  -.394840666358E-01  -.325631190565E-01  -.253420226800E-01  -.178288958309E-01
  -.100338233555E-01  -.196897041846E-02   .635130744433E-02   .149103593094E-01   .236891401895E-01
   .326661199705E-01   .418172011875E-01   .511156468463E-01   .605320195557E-01   .700341334354E-01
   .795870206160E-01   .891529146265E-01   .986912534872E-01   .108158705783E+00   .117509223245E+00
   .126694123353E+00   .135662205068E+00   .144359900124E+00   .152731461502E+00   .160719189968E+00
   .168263699159E+00   .175304219540E+00   .181778941558E+00   .187625398180E+00   .192780886798E+00
   .197182929987E+00   .200769774111E+00   .203480924170E+00   .205257712737E+00   .206043900277E+00
   .205786303570E+00   .204435448392E+00   .201946241992E+00   .198278660211E+00   .193398443402E+00
   .187277794549E+00   .179896072185E+00   .171240469898E+00   .161306673423E+00   .150099485504E+00
   .137633408003E+00   .123933170145E+00   .109034191331E+00   .929829668192E-01   .758373646553E-01
   .576668227067E-01   .385524353540E-01   .185869202081E-01  -.212554413693E-02  -.234696182120E-01
  -.453192492185E-01  -.675382767194E-01  -.899812070739E-01  -.112494161913E+00  -.134915989271E+00
  -.157079492842E+00  -.178812690457E+00  -.199939984140E+00  -.220283157880E+00  -.239662251068E+00
  -.257896552174E+00  -.274806070475E+00  -.290213681412E+00  -.303947738052E+00  -.315844675777E+00
  -.325751270780E+00  -.333526519703E+00  -.339043268157E+00  -.342189698293E+00  -.342870710681E+00
  -.341009178987E+00  -.336547029506E+00  -.329446094635E+00  -.319688700478E+00  -.307277966505E+00
  -.292237812734E+00  -.274612683925E+00  -.254467009937E+00  -.231884427155E+00  -.206966789220E+00
  -.179832996494E+00  -.150617674278E+00  -.119469728937E+00  -.865508100911E-01  -.520337052407E-01
  -.161006912205E-01   .210581352729E-01   .592465279993E-01   .982637441706E-01   .137906163704E+00
   .177968859678E+00   .218247106128E+00   .258537810450E+00   .298640858779E+00   .338360364663E+00
   .377505812321E+00   .415893058901E+00   .453345157081E+00   .489693249528E+00   .524777291749E+00
   .558446658714E+00   .590560659113E+00   .620988954824E+00   .649611890536E+00   .676320732406E+00
   .701017815151E+00   .723616599449E+00   .744041647225E+00   .762228534470E+00   .778123726362E+00
   .791684451361E+00   .802878609667E+00   .811684745620E+00   .818092101328E+00   .822100752186E+00
 pseudo wavefunction
   .306523907627E-05   .316102012315E-05   .325979408796E-05   .336165449191E-05   .346669777849E-05
   .357502340482E-05   .368673393581E-05   .380193514125E-05   .392073609600E-05   .404324928319E-05
   .416959070082E-05   .429987997151E-05   .443424045579E-05   .457279936889E-05   .471568790123E-05
   .486304134256E-05   .501499921013E-05   .517170538074E-05   .533330822700E-05   .549996075776E-05
   .567182076304E-05   .584905096341E-05   .603181916403E-05   .622029841357E-05   .641466716803E-05
   .661510945973E-05   .682181507152E-05   .703497971651E-05   .725480522335E-05   .748149972734E-05
   .771527786748E-05   .795636098972E-05   .820497735650E-05   .846136236292E-05   .872575875957E-05
   .899841688241E-05   .927959488978E-05   .956955900682E-05   .986858377754E-05   .101769523248E-04
   .104949566183E-04   .108228977511E-04   .111610862248E-04   .115098422431E-04   .118694960156E-04
   .122403880699E-04   .126228695745E-04   .130173026709E-04   .134240608165E-04   .138435291386E-04
   .142761047986E-04   .147221973684E-04   .151822292178E-04   .156566359148E-04   .161458666378E-04
   .166503846009E-04   .171706674926E-04   .177072079280E-04   .182605139151E-04   .188311093362E-04
   .194195344434E-04   .200263463705E-04   .206521196605E-04   .212974468093E-04   .219629388272E-04
   .226492258169E-04   .233569575704E-04   .240868041842E-04   .248394566937E-04   .256156277277E-04
   .264160521830E-04   .272414879201E-04   .280927164811E-04   .289705438295E-04   .298758011132E-04
   .308093454518E-04   .317720607481E-04   .327648585247E-04   .337886787875E-04   .348444909155E-04
   .359332945788E-04   .370561206851E-04   .382140323557E-04   .394081259326E-04   .406395320161E-04
   .419094165355E-04   .432189818533E-04   .445694679034E-04   .459621533655E-04   .473983568755E-04
   .488794382747E-04   .504067998967E-04   .519818878960E-04   .536061936169E-04   .552812550059E-04
   .570086580682E-04   .587900383693E-04   .606270825837E-04   .625215300925E-04   .644751746304E-04
   .664898659840E-04   .685675117439E-04   .707100791113E-04   .729195967606E-04   .751981567605E-04
   .775479165558E-04   .799711010103E-04   .824700045137E-04   .850469931551E-04   .877045069632E-04
   .904450622179E-04   .932712538332E-04   .961857578153E-04   .991913337968E-04   .102290827651E-03
   .105487174187E-03   .108783399931E-03   .112182625991E-03   .115688071016E-03   .119303054243E-03
   .123030998643E-03   .126875434164E-03   .130840001072E-03   .134928453405E-03   .139144662527E-03
   .143492620799E-03   .147976445357E-03   .152600382018E-03   .157368809304E-03   .162286242590E-03
   .167357338383E-03   .172586898739E-03   .177979875810E-03   .183541376546E-03   .189276667531E-03
   .195191179977E-03   .201290514879E-03   .207580448322E-03   .214066936959E-03   .220756123668E-03
   .227654343370E-03   .234768129048E-03   .242104217940E-03   .249669557937E-03   .257471314176E-03
   .265516875844E-03   .273813863190E-03   .282370134766E-03   .291193794891E-03   .300293201348E-03
   .309676973326E-03   .319353999616E-03   .329333447057E-03   .339624769257E-03   .350237715582E-03
   .361182340435E-03   .372469012823E-03   .384108426232E-03   .396111608809E-03   .408489933870E-03
   .421255130743E-03   .434419295950E-03   .447994904745E-03   .461994823027E-03   .476432319619E-03
   .491321078949E-03   .506675214131E-03   .522509280465E-03   .538838289368E-03   .555677722753E-03
   .573043547869E-03   .590952232612E-03   .609420761343E-03   .628466651202E-03   .648107968953E-03
   .668363348383E-03   .689252008250E-03   .710793770833E-03   .733009081069E-03   .755919026329E-03
   .779545356835E-03   .803910506750E-03   .829037615964E-03   .854950552599E-03   .881673936260E-03
   .909233162066E-03   .937654425472E-03   .966964747939E-03   .997192003454E-03   .102836494596E-02
   .106051323769E-02   .109366747854E-02   .112785923633E-02   .116312107823E-02   .119948660322E-02
   .123699047564E-02   .127566846000E-02   .131555745699E-02   .135669554069E-02   .139912199727E-02
   .144287736490E-02   .148800347526E-02   .153454349645E-02   .158254197758E-02   .163204489492E-02
   .168309969982E-02   .173575536846E-02   .179006245344E-02   .184607313738E-02   .190384128859E-02
   .196342251891E-02   .202487424381E-02   .208825574495E-02   .215362823513E-02   .222105492604E-02
   .229060109864E-02   .236233417650E-02   .243632380228E-02   .251264191728E-02   .259136284455E-02
   .267256337542E-02   .275632285991E-02   .284272330104E-02   .293184945327E-02   .302378892544E-02
   .311863228818E-02   .321647318631E-02   .331740845625E-02   .342153824889E-02   .352896615803E-02
   .363979935482E-02   .375414872833E-02   .387212903270E-02   .399385904105E-02   .411946170652E-02
   .424906433072E-02   .438279873976E-02   .452080146837E-02   .466321395207E-02   .481018272788E-02
   .496185964350E-02   .511840207525E-02   .527997315474E-02   .544674200418E-02   .561888398034E-02
   .579658092658E-02   .598002143275E-02   .616940110202E-02   .636492282388E-02   .656679705189E-02
   .677524208453E-02   .699048434710E-02   .721275867191E-02   .744230857346E-02   .767938651443E-02
   .792425415746E-02   .817718259656E-02   .843845256058E-02   .870835457983E-02   .898718910490E-02
   .927526656469E-02   .957290734822E-02   .988044169165E-02   .101982094487E-01   .105265597181E-01
   .108658502986E-01   .112164469335E-01   .115787223033E-01   .119530547176E-01   .123398264441E-01
   .127394216104E-01   .131522235951E-01   .135786118163E-01   .140189578077E-01   .144736204563E-01
   .149429402540E-01   .154272323921E-01   .159267785022E-01   .164418168150E-01   .169725304727E-01
   .175190336939E-01   .180813554412E-01   .186594201933E-01   .192530253631E-01   .198618148409E-01
   .204852480685E-01   .211225639656E-01   .217727389463E-01   .224344381568E-01   .231059589617E-01
   .237851655846E-01   .244694136790E-01   .251554634716E-01   .258393799684E-01   .265164185683E-01
   .271808942660E-01   .278260324772E-01   .284437993635E-01   .290247093987E-01   .295576077993E-01
   .300294253598E-01   .304249031939E-01   .307262849110E-01   .309129738779E-01   .309611534444E-01
   .308433683966E-01   .305280664757E-01   .299790996080E-01   .291551855962E-01   .280093324807E-01
   .264882296649E-01   .245316122941E-01   .220716083625E-01   .190320816938E-01   .153279883881E-01
   .108647696326E-01   .553781001900E-02  -.768002259323E-03  -.817856872412E-02  -.168306736421E-01
  -.268718129311E-01  -.384596844546E-01  -.517612543158E-01  -.669513031666E-01  -.842103470203E-01
  -.103721819653E+00  -.125668399754E+00  -.150227367278E+00  -.177564882007E+00  -.207829095748E+00
  -.241142040539E+00  -.277590281903E+00  -.317214391603E+00  -.359999728194E+00  -.405955816909E+00
 ae wavefunction
   .332790960878E-04   .342973891243E-04   .353467616646E-04   .364281573898E-04   .375425483355E-04
   .386909357250E-04   .398743508265E-04   .410938558337E-04   .423505447718E-04   .436455444268E-04
   .449800153019E-04   .463551525997E-04   .477721872305E-04   .492323868490E-04   .507370569184E-04
   .522875418030E-04   .538852258903E-04   .555315347432E-04   .572279362820E-04   .589759419982E-04
   .607771081995E-04   .626330372878E-04   .645453790697E-04   .665158321010E-04   .685461450655E-04
   .706381181886E-04   .727936046866E-04   .750145122523E-04   .773028045772E-04   .796605029117E-04
   .820896876622E-04   .845925000281E-04   .871711436767E-04   .898278864591E-04   .925650621651E-04
   .953850723191E-04   .982903880173E-04   .101283551807E-03   .104367179604E-03   .107543962661E-03
   .110816669565E-03   .114188148293E-03   .117661328294E-03   .121239222630E-03   .124924930146E-03
   .128721637693E-03   .132632622387E-03   .136661253915E-03   .140810996881E-03   .145085413189E-03
   .149488164480E-03   .154023014592E-03   .158693832076E-03   .163504592736E-03   .168459382219E-03
   .173562398631E-03   .178817955195E-03   .184230482932E-03   .189804533388E-03   .195544781371E-03
   .201456027730E-03   .207543202150E-03   .213811365965E-03   .220265714995E-03   .226911582392E-03
   .233754441499E-03   .240799908705E-03   .248053746316E-03   .255521865407E-03   .263210328669E-03
   .271125353243E-03   .279273313522E-03   .287660743935E-03   .296294341677E-03   .305180969408E-03
   .314327657884E-03   .323741608530E-03   .333430195935E-03   .343400970255E-03   .353661659522E-03
   .364220171839E-03   .375084597443E-03   .386263210634E-03   .397764471538E-03   .409597027698E-03
   .421769715473E-03   .434291561219E-03   .447171782235E-03   .460419787454E-03   .474045177856E-03
   .488057746560E-03   .502467478599E-03   .517284550319E-03   .532519328391E-03   .548182368387E-03
   .564284412907E-03   .580836389195E-03   .597849406222E-03   .615334751190E-03   .633303885412E-03
   .651768439519E-03   .670740207948E-03   .690231142663E-03   .710253346041E-03   .730819062878E-03
   .751940671450E-03   .773630673557E-03   .795901683491E-03   .818766415856E-03   .842237672153E-03
   .866328326067E-03   .891051307359E-03   .916419584286E-03   .942446144444E-03   .969143973959E-03
   .996526034898E-03   .102460524082E-02   .105339443033E-02   .108290633859E-02   .111315356651E-02
   .114414854773E-02   .117590351302E-02   .120843045214E-02   .124174107296E-02   .127584675766E-02
   .131075851590E-02   .134648693481E-02   .138304212565E-02   .142043366692E-02   .145867054379E-02
   .149776108375E-02   .153771288810E-02   .157853275937E-02   .162022662427E-02   .166279945211E-02
   .170625516841E-02   .175059656361E-02   .179582519668E-02   .184194129329E-02   .188894363864E-02
   .193682946447E-02   .198559433026E-02   .203523199844E-02   .208573430332E-02   .213709101372E-02
   .218928968911E-02   .224231552908E-02   .229615121609E-02   .235077675141E-02   .240616928408E-02
   .246230293300E-02   .251914860193E-02   .257667378757E-02   .263484238075E-02   .269361446065E-02
   .275294608244E-02   .281278905829E-02   .287309073212E-02   .293379374832E-02   .299483581488E-02
   .305614946122E-02   .311766179143E-02   .317929423340E-02   .324096228450E-02   .330257525477E-02
   .336403600844E-02   .342524070473E-02   .348607853935E-02   .354643148768E-02   .360617405136E-02
   .366517300977E-02   .372328717817E-02   .378036717454E-02   .383625519715E-02   .389078481534E-02
   .394378077594E-02   .399505882818E-02   .404442557003E-02   .409167831923E-02   .413660501247E-02
   .417898413637E-02   .421858469439E-02   .425516621365E-02   .428847879633E-02   .431826322029E-02
   .434425109391E-02   .436616507031E-02   .438371912648E-02   .439661891303E-02   .440456218025E-02
   .440723928675E-02   .440433379675E-02   .439552317242E-02   .438047956758E-02   .435887072926E-02
   .433036101354E-02   .429461252182E-02   .425128636393E-02   .420004405367E-02   .414054904262E-02
   .407246839717E-02   .399547462342E-02   .390924764384E-02   .381347692889E-02   .370786378564E-02
   .359212380462E-02   .346598946468E-02   .332921289438E-02   .318156878670E-02   .302285746238E-02
   .285290807484E-02   .267158194802E-02   .247877603567E-02   .227442648848E-02   .205851231241E-02
   .183105909864E-02   .159214280255E-02   .134189354526E-02   .108049940813E-02   .808210186481E-03
   .525341065597E-03   .232276178824E-03  -.705279946183E-04  -.382539435301E-03  -.703147635202E-03
  -.103166093530E-02  -.136730418594E-02  -.170921676394E-02  -.205645098062E-02  -.240797091910E-02
  -.276265174972E-02  -.311927958652E-02  -.347655196436E-02  -.383307902990E-02  -.418738554689E-02
  -.453791381288E-02  -.488302756802E-02  -.522101694937E-02  -.555010451091E-02  -.586845230047E-02
  -.617416996523E-02  -.646532384904E-02  -.673994704057E-02  -.699605032578E-02  -.723163398664E-02
  -.744470037129E-02  -.763326714044E-02  -.779538107543E-02  -.792913231358E-02  -.803266886015E-02
  -.810421121041E-02  -.814206690063E-02  -.814464479366E-02  -.811046889123E-02  -.803819145368E-02
  -.792660519675E-02  -.777465432632E-02  -.758144416528E-02  -.734624912276E-02  -.706851875618E-02
  -.674788168143E-02  -.638414709813E-02  -.597730371694E-02  -.552751590675E-02  -.503511692328E-02
  -.450059913894E-02  -.392460126542E-02  -.330789264233E-02  -.265135474644E-02  -.195596014275E-02
  -.122274913172E-02  -.452804338425E-03   .352776537653E-03   .119290953971E-02   .206655422288E-02
   .297274285809E-02   .391060599851E-02   .487938968735E-02   .587845933246E-02   .690728824659E-02
   .796543532533E-02   .905252255370E-02   .101682216390E-01   .113122475404E-01   .124843452935E-01
   .136842570044E-01   .149116648488E-01   .161661126581E-01   .174469097787E-01   .187530192230E-01
   .200829303119E-01   .214345148198E-01   .228048651244E-01   .241901128938E-01   .255852272632E-01
   .269837920448E-01   .283777621052E-01   .297571995570E-01   .311099908284E-01   .324215460325E-01
   .336744823488E-01   .348482934608E-01   .359190073753E-01   .368588352845E-01   .376358144700E-01
   .382134485993E-01   .385503491673E-01   .385998822349E-01   .383098250953E-01   .376220380322E-01
   .364721569400E-01   .347893133376E-01   .324958891930E-01   .295073150279E-01   .257319210772E-01
   .210708525602E-01   .154180604806E-01   .866038301277E-02   .677745150000E-03  -.865652160873E-02
  -.194752170795E-01  -.319166427280E-01  -.461237834441E-01  -.622432755064E-01  -.804241301524E-01
  -.100816185309E+00  -.123568250014E+00  -.148825906723E+00  -.176728940141E+00  -.207408358873E+00
  -.240982988976E+00  -.277555624700E+00  -.317208733985E+00  -.359999728194E+00  -.405955816909E+00
 pseudo wavefunction
   .204714845008E-08   .217708382521E-08   .231526638033E-08   .246221957548E-08   .261850009546E-08
   .278469995861E-08   .296144875953E-08   .314941605404E-08   .334931389564E-08   .356189953282E-08
   .378797827772E-08   .402840655677E-08   .428409515497E-08   .455601266612E-08   .484518916203E-08
   .515272009461E-08   .547977044563E-08   .582757913987E-08   .619746373844E-08   .659082542985E-08
   .700915433804E-08   .745403516719E-08   .792715320487E-08   .843030070621E-08   .896538368330E-08
   .953442912545E-08   .101395926778E-07   .107831668075E-07   .114675894875E-07   .121954534325E-07
   .129695159203E-07   .137927092373E-07   .146681517857E-07   .155991598976E-07   .165892603970E-07
   .176422039604E-07   .187619793251E-07   .199528283991E-07   .212192623302E-07   .225660785952E-07
   .239983791734E-07   .255215898738E-07   .271414808892E-07   .288641886547E-07   .306962390934E-07
   .326445723379E-07   .347165690210E-07   .369200782343E-07   .392634472624E-07   .417555532040E-07
   .444058365993E-07   .472243371931E-07   .502217319671E-07   .534093755857E-07   .567993434099E-07
   .604044772412E-07   .642384339678E-07   .683157373002E-07   .726518327893E-07   .772631463366E-07
   .821671464190E-07   .873824102622E-07   .929286942148E-07   .988270085884E-07   .105099697249E-06
   .111770522260E-06   .118864753896E-06   .126409266371E-06   .134432639645E-06   .142965267688E-06
   .152039473618E-06   .161689632148E-06   .171952299803E-06   .182866353403E-06   .194473137334E-06
   .206816620170E-06   .219943561235E-06   .233903687731E-06   .248749883120E-06   .264538387452E-06
   .281329010415E-06   .299185357902E-06   .318175072967E-06   .338370092065E-06   .359846917562E-06
   .382686907543E-06   .406976584006E-06   .432807960630E-06   .460278891336E-06   .489493440978E-06
   .520562279559E-06   .553603101472E-06   .588741071349E-06   .626109298207E-06   .665849339692E-06
   .708111738330E-06   .753056591804E-06   .800854159444E-06   .851685507199E-06   .905743193553E-06
   .963231998972E-06   .102436970166E-05   .108938790254E-05   .115853290261E-05   .123206663600E-05
   .131026766219E-05   .139343222131E-05   .148187535629E-05   .157593210640E-05   .167595877637E-05
   .178233428621E-05   .189546160661E-05   .201576928550E-05   .214371307149E-05   .227977764034E-05
   .242447843106E-05   .257836359847E-05   .274201608978E-05   .291605585297E-05   .310114218522E-05
   .329797623060E-05   .350730363614E-05   .372991737654E-05   .396666075821E-05   .421843061394E-05
   .448618070037E-05   .477092531107E-05   .507374311908E-05   .539578126318E-05   .573825969366E-05
   .610247579392E-05   .648980929537E-05   .690172750435E-05   .733979086084E-05   .780565885000E-05
   .830109628893E-05   .882798001251E-05   .938830598366E-05   .998419685490E-05   .106179100099E-04
   .112918461156E-04   .120085582169E-04   .127707614092E-04   .135813431241E-04   .144433740694E-04
   .153601198617E-04   .163350533995E-04   .173718680197E-04   .184744914914E-04   .196471008962E-04
   .208941384543E-04   .222203283549E-04   .236306946551E-04   .251305803155E-04   .267256674434E-04
   .284219988221E-04   .302260008069E-04   .321445076741E-04   .341847875172E-04   .363545697857E-04
   .386620745740E-04   .411160437690E-04   .437257741755E-04   .465011527459E-04   .494526940458E-04
   .525915800995E-04   .559297027654E-04   .594797088031E-04   .632550478016E-04   .672700231525E-04
   .715398462598E-04   .760806941935E-04   .809097710045E-04   .860453729350E-04   .915069577709E-04
   .973152186000E-04   .103492162256E-03   .110061192749E-03   .117047199988E-03   .124476654156E-03
   .132377706070E-03   .140780293921E-03   .149716256806E-03   .159219455465E-03   .169325900702E-03
   .180073889967E-03   .191504152619E-03   .203660004434E-03   .216587511931E-03   .230335667150E-03
   .244956573558E-03   .260505643766E-03   .277041809844E-03   .294627747006E-03   .313330111541E-03
   .333219793888E-03   .354372187827E-03   .376867476810E-03   .400790938536E-03   .426233268928E-03
   .453290926760E-03   .482066500245E-03   .512669097011E-03   .545214758936E-03   .579826903457E-03
   .616636793043E-03   .655784034635E-03   .697417110994E-03   .741693945984E-03   .788782505994E-03
   .838861439812E-03   .892120759441E-03   .948762564480E-03   .100900181290E-02   .107306714119E-02
   .114120173712E-02   .121366426844E-02   .129072987122E-02   .137269120167E-02   .145985955555E-02
   .155256605967E-02   .165116293997E-02   .175602487141E-02   .186755041490E-02   .198616354696E-02
   .211231528829E-02   .224648543758E-02   .238918441779E-02   .254095524190E-02   .270237560653E-02
   .287406012142E-02   .305666268425E-02   .325087901007E-02   .345744932603E-02   .367716124227E-02
   .391085281078E-02   .415941578513E-02   .442379909433E-02   .470501254559E-02   .500413077139E-02
   .532229743761E-02   .566072973056E-02   .602072314206E-02   .640365657313E-02   .681099777835E-02
   .724430917448E-02   .770525403885E-02   .819560312462E-02   .871724172236E-02   .927217719926E-02
   .986254704982E-02   .104906274944E-01   .111588426645E-01   .118697744170E-01   .126261728219E-01
   .134309673729E-01   .142872789722E-01   .151984327460E-01   .161679717503E-01   .171996716327E-01
   .182975563186E-01   .194659147971E-01   .207093190860E-01   .220326434625E-01   .234410850504E-01
   .249401858626E-01   .265358564037E-01   .282344009450E-01   .300425445893E-01   .319674622547E-01
   .340168097087E-01   .361987567951E-01   .385220230021E-01   .409959155277E-01   .436303700024E-01
   .464359940388E-01   .494241137786E-01   .526068236105E-01   .559970392356E-01   .596085542501E-01
   .634561004136E-01   .675554117571E-01   .719232926694E-01   .765776900776E-01   .815377698053E-01
   .868239971461E-01   .924582216380E-01   .984637659492E-01   .104865518698E+00   .111690030916E+00
   .118965615721E+00   .126722450608E+00   .134992681546E+00   .143810527830E+00   .153212386342E+00
   .163236933519E+00   .173925222912E+00   .185320775743E+00   .197469661294E+00   .210420563307E+00
   .224224827846E+00   .238936487211E+00   .254612253532E+00   .271311474626E+00   .289096043527E+00
   .308030251807E+00   .328180575472E+00   .349615380797E+00   .372404535982E+00   .396618913138E+00
   .422329763733E+00   .449607949509E+00   .478523010031E+00   .509142047638E+00   .541528410817E+00
   .575740158139E+00   .611828287114E+00   .649834715988E+00   .689790011883E+00   .731710866203E+00
   .775597328148E+00   .821429819931E+00   .869165973034E+00   .918737343792E+00   .970046088628E+00
   .102296170406E+01   .107731796340E+01   .113291020945E+01   .118949318879E+01   .124677963493E+01
   .130443982202E+01   .136210231147E+01   .141935609671E+01   .147578635931E+01   .153123491448E+01
 ae wavefunction
   .171002677285E-05   .180772889244E-05   .191065209457E-05   .201909658782E-05   .213337903472E-05
   .225383351779E-05   .238081256098E-05   .251468820979E-05   .265585317318E-05   .280472203258E-05
   .296173251954E-05   .312734686899E-05   .330205325070E-05   .348636728477E-05   .368083364568E-05
   .388602776113E-05   .410255761048E-05   .433106562921E-05   .457223072649E-05   .482677042192E-05
   .509544310882E-05   .537905045214E-05   .567843992924E-05   .599450752155E-05   .632820056701E-05
   .668052078282E-05   .705252746873E-05   .744534090229E-05   .786014593705E-05   .829819581697E-05
   .876081621949E-05   .924940954158E-05   .976545944360E-05   .103105356664E-04   .108862991391E-04
   .114945073941E-04   .121370203093E-04   .128158061971E-04   .135329482612E-04   .142906514437E-04
   .150912496868E-04   .159372136339E-04   .168311587976E-04   .177758542227E-04   .187742316745E-04
   .198293953846E-04   .209446323882E-04   .221234234896E-04   .233694548932E-04   .246866305413E-04
   .260790852017E-04   .275511983508E-04   .291076089008E-04   .307532308213E-04   .324932697118E-04
   .343332403805E-04   .362789854924E-04   .383366953497E-04   .405129288752E-04   .428146358695E-04
   .452491806200E-04   .478243669434E-04   .505484647472E-04   .534302382030E-04   .564789756267E-04
   .597045211703E-04   .631173084312E-04   .667283960967E-04   .705495057429E-04   .745930619169E-04
   .788722346404E-04   .834009844753E-04   .881941103059E-04   .932672999966E-04   .986371840980E-04
   .104321392775E-03   .110338616158E-03   .116708668300E-03   .123452554970E-03   .130592545498E-03
   .138152248901E-03   .146156694552E-03   .154632417646E-03   .163607549745E-03   .173111914689E-03
   .183177130191E-03   .193836715428E-03   .205126204980E-03   .217083269481E-03   .229747843346E-03
   .243162259992E-03   .257371394960E-03   .272422817395E-03   .288366950330E-03   .305257240282E-03
   .323150336662E-03   .342106281547E-03   .362188710369E-03   .383465064127E-03   .406006813741E-03
   .429889697196E-03   .455193970165E-03   .482004670828E-03   .510411899628E-03   .540511114759E-03
   .572403444184E-03   .606196015064E-03   .642002301458E-03   .679942491241E-03   .720143873202E-03
   .762741245319E-03   .807877345265E-03   .855703304217E-03   .906379125101E-03   .960074186430E-03
   .101696777294E-02   .107724963426E-02   .114112057292E-02   .120879306296E-02   .128049190058E-02
   .135645488815E-02   .143693355301E-02   .152219390253E-02   .161251721697E-02   .170820088148E-02
   .180955925894E-02   .191692460505E-02   .203064802731E-02   .215110048933E-02   .227867386210E-02
   .241378202374E-02   .255686200911E-02   .270837521093E-02   .286880863370E-02   .303867620173E-02
   .321852012275E-02   .340891230805E-02   .361045585036E-02   .382378656037E-02   .404957456261E-02
   .428852595134E-02   .454138450673E-02   .480893347155E-02   .509199738814E-02   .539144399521E-02
   .570818618359E-02   .604318400977E-02   .639744676544E-02   .677203510086E-02   .716806319935E-02
   .758670099941E-02   .802917646045E-02   .849677786729E-02   .899085616766E-02   .951282733621E-02
   .100641747573E-01   .106464516180E-01   .112612833010E-01   .119103697667E-01   .125954879115E-01
   .133184938879E-01   .140813253712E-01   .148860037539E-01   .157346362500E-01   .166294178855E-01
   .175726333524E-01   .185666586999E-01   .196139628330E-01   .207171087881E-01   .218787547498E-01
   .231016547733E-01   .243886591695E-01   .257427145102E-01   .271668632053E-01   .286642426012E-01
   .302380835435E-01   .318917083476E-01   .336285281111E-01   .354520393024E-01   .373658195529E-01
   .393735225759E-01   .414788721330E-01   .436856549617E-01   .459977125745E-01   .484189318367E-01
   .509532342241E-01   .536045636586E-01   .563768728172E-01   .592741078033E-01   .623001910712E-01
   .654590024876E-01   .687543584156E-01   .721899887043E-01   .757695114678E-01   .794964055384E-01
   .833739804803E-01   .874053440567E-01   .915933670448E-01   .959406453025E-01   .100449459000E+00
   .105121728940E+00   .109958969901E+00   .114962240963E+00   .120132092782E+00   .125468511808E+00
   .130970861470E+00   .136637820379E+00   .142467317613E+00   .148456465230E+00   .154601488138E+00
   .160897651560E+00   .167339186325E+00   .173919212317E+00   .180629660463E+00   .187461193703E+00
   .194403127471E+00   .201443350296E+00   .208568245187E+00   .215762612570E+00   .223009595563E+00
   .230290608423E+00   .237585268980E+00   .244871335803E+00   .252124650760E+00   .259319087473E+00
   .266426506110E+00   .273416714909E+00   .280257439077E+00   .286914298077E+00   .293350793065E+00
   .299528307012E+00   .305406120928E+00   .310941450156E+00   .316089504985E+00   .320803579543E+00
   .325035172186E+00   .328734139342E+00   .331848883404E+00   .334326574058E+00   .336113401825E+00
   .337154862739E+00   .337396073611E+00   .336782117939E+00   .335258422757E+00   .332771166605E+00
   .329267718369E+00   .324697106217E+00   .319010515341E+00   .312161812761E+00   .304108097020E+00
   .294810270200E+00   .284233629179E+00   .272348472603E+00   .259130719349E+00   .244562533682E+00
   .228632951491E+00   .211338501254E+00   .192683812534E+00   .172682203958E+00   .151356241844E+00
   .128738259869E+00   .104870829579E+00   .798071711247E-01   .536114934595E-01   .263592533923E-01
  -.186267668070E-02  -.309559419861E-01  -.608107487278E-01  -.913060269592E-01  -.122309723532E+00
  -.153679238023E+00  -.185262017047E+00  -.216896321869E+00  -.248412173996E+00  -.279632454104E+00
  -.310374075226E+00  -.340449084080E+00  -.369665511806E+00  -.397827870578E+00  -.424737422754E+00
  -.450192664946E+00  -.473990623092E+00  -.495929248688E+00  -.515810534644E+00  -.533443568713E+00
  -.548647005957E+00  -.561250959487E+00  -.571098559422E+00  -.578047385797E+00  -.581970850496E+00
  -.582759507989E+00  -.580322230028E+00  -.574587172346E+00  -.565502475854E+00  -.553036669453E+00
  -.537178765788E+00  -.517938060244E+00  -.495343655779E+00  -.469443743020E+00  -.440304668356E+00
  -.408009823263E+00  -.372658388161E+00  -.334363962266E+00  -.293253109204E+00  -.249463845549E+00
  -.203144096704E+00  -.154450141698E+00  -.103545065558E+00  -.505972355791E-01   .422118435037E-02
   .607356687336E-01   .118770703133E+00   .178151083690E+00   .238703133269E+00   .300255825175E+00
   .362641806123E+00   .425698282651E+00   .489267724798E+00   .553198639047E+00   .617346185705E+00
   .681572690236E+00   .745748071125E+00   .809750185218E+00   .873465095943E+00   .936787262563E+00
   .999619647884E+00   .106187374368E+01   .112346952189E+01   .118433533419E+01   .124440780089E+01
   .130363174786E+01   .136196026186E+01   .141935493496E+01   .147578635931E+01   .153123491448E+01
 pseudo wavefunction
   .218956271236E-08   .232853731939E-08   .247633283903E-08   .263350914692E-08   .280066165482E-08
   .297842356609E-08   .316746827437E-08   .336851191456E-08   .358231607565E-08   .380969068571E-08
   .405149708012E-08   .430865126438E-08   .458212738416E-08   .487296141551E-08   .518225508933E-08
   .551118006491E-08   .586098236839E-08   .623298711293E-08   .662860351846E-08   .704933025010E-08
   .749676109528E-08   .797259100139E-08   .847862249646E-08   .901677251750E-08   .958907967217E-08
   .101977119614E-07   .108449749922E-07   .115333207116E-07   .122653566952E-07   .130438560249E-07
   .138717677941E-07   .147522282793E-07   .156885728206E-07   .166843484570E-07   .177433273630E-07
   .188695211380E-07   .200671960034E-07   .213408889635E-07   .226954249925E-07   .241359353126E-07
   .256678768316E-07   .272970528147E-07   .290296348686E-07   .308721863202E-07   .328316870799E-07
   .349155600826E-07   .371316994072E-07   .394885001804E-07   .419948903795E-07   .446603646524E-07
   .474950202856E-07   .505095954540E-07   .537155098992E-07   .571249081895E-07   .607507057255E-07
   .646066376656E-07   .687073109576E-07   .730682596721E-07   .777060038480E-07   .826381120736E-07
   .878832680391E-07   .934613413135E-07   .993934626141E-07   .105702103853E-06   .112411163265E-06
   .119546055937E-06   .127133810085E-06   .135203169442E-06   .143784702144E-06   .152910916526E-06
   .162616384268E-06   .172937871363E-06   .183914477387E-06   .195587783614E-06   .208002010539E-06
   .221204185385E-06   .235244320254E-06   .250175601577E-06   .266054591595E-06   .282941442624E-06
   .300900124922E-06   .319998669015E-06   .340309423411E-06   .361909328660E-06   .384880208823E-06
   .409309081427E-06   .435288487101E-06   .462916840133E-06   .492298801276E-06   .523545674215E-06
   .556775827199E-06   .592115141435E-06   .629697487941E-06   .669665234663E-06   .712169785782E-06
   .757372155245E-06   .805443576708E-06   .856566152178E-06   .910933541838E-06   .968751697642E-06
   .103023964348E-05   .109563030486E-05   .116517139124E-05   .123912633435E-05   .131777528612E-05
   .140141617987E-05   .149036585894E-05   .158496127682E-05   .168556077361E-05   .179254543339E-05
   .190632052774E-05   .202731705092E-05   .215599335248E-05   .229283687343E-05   .243836599264E-05
   .259313199047E-05   .275772113691E-05   .293275691232E-05   .311890236913E-05   .331686264334E-05
   .352738762548E-05   .375127480106E-05   .398937227126E-05   .424258196533E-05   .451186305689E-05
   .479823559697E-05   .510278437766E-05   .542666304090E-05   .577109844805E-05   .613739532668E-05
   .652694121234E-05   .694121170381E-05   .738177605187E-05   .785030310269E-05   .834856761838E-05
   .887845699854E-05   .944197842833E-05   .100412664801E-04   .106785911972E-04   .113563666910E-04
   .120771602828E-04   .128437022265E-04   .136588960471E-04   .145258295363E-04   .154477864443E-04
   .164282589144E-04   .174709607057E-04   .185798412548E-04   .197591006292E-04   .210132054297E-04
   .223469057002E-04   .237652529115E-04   .252736190839E-04   .268777171238E-04   .285836224491E-04
   .303977959860E-04   .323271086232E-04   .343788672178E-04   .365608422481E-04   .388812972205E-04
   .413490199393E-04   .439733557593E-04   .467642429443E-04   .497322502669E-04   .528886169905E-04
   .562452953834E-04   .598149959264E-04   .636112353834E-04   .676483879156E-04   .719417394325E-04
   .765075453832E-04   .813630922052E-04   .865267626630E-04   .920181053188E-04   .978579083995E-04
   .104068278334E-03   .110672723258E-03   .117696241795E-03   .125165417449E-03   .133108518963E-03
   .141555607012E-03   .150538647639E-03   .160091632841E-03   .170250708777E-03   .181054312050E-03
   .192543314587E-03   .204761177655E-03   .217754115565E-03   .231571269696E-03   .246264893467E-03
   .261890548934E-03   .278507315760E-03   .296178013296E-03   .314969436616E-03   .334952607354E-03
   .356203040258E-03   .378801026453E-03   .402831934419E-03   .428386529788E-03   .455561315122E-03
   .484458890884E-03   .515188338911E-03   .547865629759E-03   .582614055368E-03   .619564688599E-03
   .658856871252E-03   .700638732301E-03   .745067738151E-03   .792311276842E-03   .842547278224E-03
   .895964872245E-03   .952765087595E-03   .101316159310E-02   .107738148435E-02   .114566611822E-02
   .121827199796E-02   .129547171201E-02   .137755492921E-02   .146482945396E-02   .155762234454E-02
   .165628109804E-02   .176117490568E-02   .187269598229E-02   .199126097392E-02   .211731244780E-02
   .225132046880E-02   .239378426702E-02   .254523400092E-02   .270623262086E-02   .287737783785E-02
   .305930420238E-02   .325268529854E-02   .345823605839E-02   .367671520179E-02   .390892780684E-02
   .415572801592E-02   .441802188243E-02   .469677036303E-02   .499299245990E-02   .530776851733E-02
   .564224367649E-02   .599763149164E-02   .637521771040E-02   .677636421979E-02   .720251315875E-02
   .765519119673E-02   .813601397597E-02   .864669071392E-02   .918902895958E-02   .976493949519E-02
   .103764413717E-01   .110256670632E-01   .117148677202E-01   .124464184994E-01   .132228239381E-01
   .140467233398E-01   .149208961241E-01   .158482670924E-01   .168319115429E-01   .178750601640E-01
   .189811036167E-01   .201535967037E-01   .213962620035E-01   .227129928301E-01   .241078553505E-01
   .255850896706E-01   .271491096661E-01   .288045012983E-01   .305560191190E-01   .324085806157E-01
   .343672580002E-01   .364372669816E-01   .386239519923E-01   .409327672608E-01   .433692530325E-01
   .459390061349E-01   .486476439698E-01   .515007608800E-01   .545038756841E-01   .576623690057E-01
   .609814088226E-01   .644658624452E-01   .681201928799E-01   .719483372536E-01   .759535646558E-01
   .801383104002E-01   .845039833061E-01   .890507421517E-01   .937772369574E-01   .986803102010E-01
   .103754652460E+00   .108992406302E+00   .114382711524E+00   .119911184035E+00   .125559319842E+00
   .131303814694E+00   .137115788989E+00   .142959906607E+00   .148793375340E+00   .154564815662E+00
   .160212983748E+00   .165665333889E+00   .170836404978E+00   .175626015540E+00   .179917252025E+00
   .183574235960E+00   .186439657197E+00   .188332063205E+00   .189042898415E+00   .188333293344E+00
   .185930611060E+00   .181524768985E+00   .174764367533E+00   .165252674340E+00   .152543534451E+00
   .136137303465E+00   .115476932961E+00   .899443762009E-01   .588575274751E-01   .214679608933E-01
  -.230402063008E-01  -.755499352962E-01  -.137008911248E+00  -.208424679085E+00  -.290856664305E+00
  -.385404408255E+00  -.493191295522E+00  -.615343021690E+00  -.752960054156E+00  -.907083390376E+00
  -.107865303238E+01  -.126845878984E+01  -.147708331310E+01  -.170487395686E+01  -.195219484755E+01
 ae wavefunction
  -.536101783626E-06  -.566731674216E-06  -.598998393350E-06  -.632996056907E-06  -.668823939111E-06
  -.706586775376E-06  -.746395082529E-06  -.788365497426E-06  -.832621134942E-06  -.879291967002E-06
  -.928515223102E-06  -.980435814581E-06  -.103520678336E-05  -.109298977706E-05  -.115395555187E-05
  -.121828450512E-05  -.128616723910E-05  -.135780515810E-05  -.143341110094E-05  -.151321001078E-05
  -.159743964471E-05  -.168635132548E-05  -.178021073803E-05  -.187929877328E-05  -.198391242245E-05
  -.209436572460E-05  -.221099077092E-05  -.233413876911E-05  -.246418117140E-05  -.260151087037E-05
  -.274654346647E-05  -.289971861165E-05  -.306150143387E-05  -.323238404728E-05  -.341288715340E-05
  -.360356173888E-05  -.380499087555E-05  -.401779162935E-05  -.424261708452E-05  -.448015849015E-05
  -.473114753673E-05  -.499635877045E-05  -.527661215383E-05  -.557277578153E-05  -.588576876090E-05
  -.621656426730E-05  -.656619278483E-05  -.693574554398E-05  -.732637816789E-05  -.773931454033E-05
  -.817585090865E-05  -.863736023606E-05  -.912529681859E-05  -.964120118261E-05  -.101867052801E-04
  -.107635379999E-04  -.113735310134E-04  -.120186249763E-04  -.127008761066E-04  -.134224631620E-04
  -.141856948422E-04  -.149930176387E-04  -.158470241628E-04  -.167504619773E-04  -.177062429645E-04
  -.187174532615E-04  -.197873637968E-04  -.209194414650E-04  -.221173609770E-04  -.233850174257E-04
  -.247265396117E-04  -.261463041708E-04  -.276489505547E-04  -.292393969122E-04  -.309228569265E-04
  -.327048576631E-04  -.345912584890E-04  -.365882711258E-04  -.387024809027E-04  -.409408692801E-04
  -.433108377169E-04  -.458202329610E-04  -.484773738442E-04  -.512910796690E-04  -.542707002790E-04
  -.574261479093E-04  -.607679309195E-04  -.643071895163E-04  -.680557335777E-04  -.720260827007E-04
  -.762315085949E-04  -.806860799566E-04  -.854047099590E-04  -.904032065085E-04  -.956983254175E-04
  -.101307826655E-03  -.107250533847E-03  -.113546397200E-03  -.120216560037E-03  -.127283429146E-03
  -.134770749128E-03  -.142703680987E-03  -.151108885161E-03  -.160014609238E-03  -.169450780615E-03
  -.179449104329E-03  -.190043166358E-03  -.201268542650E-03  -.213162914176E-03  -.225766188318E-03
  -.239120626900E-03  -.253270981186E-03  -.268264634195E-03  -.284151750684E-03  -.300985435148E-03
  -.318821898243E-03  -.337720631997E-03  -.357744594226E-03  -.378960402562E-03  -.401438538524E-03
  -.425253562063E-03  -.450484337038E-03  -.477214268067E-03  -.505531549232E-03  -.535529425100E-03
  -.567306464547E-03  -.600966847864E-03  -.636620667639E-03  -.674384243889E-03  -.714380453950E-03
  -.756739077580E-03  -.801597157778E-03  -.849099377752E-03  -.899398454521E-03  -.952655549546E-03
  -.100904069682E-02  -.106873324880E-02  -.113192234048E-02  -.119880737195E-02  -.126959850972E-02
  -.134451720690E-02  -.142379674247E-02  -.150768277961E-02  -.159643394318E-02  -.169032241604E-02
  -.178963455415E-02  -.189467151991E-02  -.200574993344E-02  -.212320254095E-02  -.224737889944E-02
  -.237864607673E-02  -.251738936557E-02  -.266401301033E-02  -.281894094456E-02  -.298261753737E-02
  -.315550834638E-02  -.333810087452E-02  -.353090532766E-02  -.373445536958E-02  -.394930887054E-02
  -.417604864495E-02  -.441528317342E-02  -.466764730362E-02  -.493380292413E-02  -.521443960449E-02
  -.551027519424E-02  -.582205637278E-02  -.615055914135E-02  -.649658924739E-02  -.686098253079E-02
  -.724460518054E-02  -.764835388940E-02  -.807315589310E-02  -.851996887955E-02  -.898978075238E-02
  -.948360923208E-02  -.100025012766E-01  -.105475323021E-01  -.111198051839E-01  -.117204490144E-01
  -.123506175966E-01  -.130114876473E-01  -.137042566849E-01  -.144301405748E-01  -.151903707028E-01
  -.159861907493E-01  -.168188530310E-01  -.176896143795E-01  -.185997315250E-01  -.195504559491E-01
  -.205430281756E-01  -.215786714620E-01  -.226585848587E-01  -.237839356012E-01  -.249558508004E-01
  -.261754083986E-01  -.274436273588E-01  -.287614570573E-01  -.301297658517E-01  -.315493287996E-01
  -.330208145055E-01  -.345447710802E-01  -.361216111996E-01  -.377515962570E-01  -.394348196090E-01
  -.411711889241E-01  -.429604076503E-01  -.448019556293E-01  -.466950688954E-01  -.486387187107E-01
  -.506315899001E-01  -.526720585685E-01  -.547581692967E-01  -.568876119341E-01  -.590576981247E-01
  -.612653377276E-01  -.635070153134E-01  -.657787669410E-01  -.680761574398E-01  -.703942584348E-01
  -.727276273586E-01  -.750702876857E-01  -.774157106025E-01  -.797567982874E-01  -.820858689314E-01
  -.843946435909E-01  -.866742349567E-01  -.889151381788E-01  -.911072240103E-01  -.932397347472E-01
  -.953012836910E-01  -.972798591178E-01  -.991628339244E-01  -.100936982187E+00  -.102588503787E+00
  -.104103058009E+00  -.105465806612E+00  -.106661466439E+00  -.107674371217E+00  -.108488542019E+00
  -.109087765860E+00  -.109455682088E+00  -.109575876389E+00  -.109431982318E+00  -.109007790228E+00
  -.108287363304E+00  -.107255160291E+00  -.105896164298E+00  -.104196016958E+00  -.102141157078E+00
  -.997189628239E-01  -.969178963442E-01  -.937276496130E-01  -.901392901288E-01  -.861454049368E-01
  -.817402412733E-01  -.769198419493E-01  -.716821734070E-01  -.660272442061E-01  -.599572115290E-01
  -.534764731665E-01  -.465917423516E-01  -.393121027954E-01  -.316490413466E-01  -.236164558706E-01
  -.152306362186E-01  -.651021650088E-02   .252390279276E-02   .118486640978E-01   .214389948883E-01
   .312679844924E-01   .413070982198E-01   .515264315289E-01   .618950045854E-01   .723810897488E-01
   .829525487922E-01   .935771353457E-01   .104222703781E+00   .114857281016E+00   .125449020922E+00
   .135966158592E+00   .146377143557E+00   .156651058934E+00   .166758235407E+00   .176670829436E+00
   .186363193474E+00   .195812019109E+00   .204996319490E+00   .213897312916E+00   .222498233152E+00
   .230784062274E+00   .238741165754E+00   .246356804380E+00   .253618499595E+00   .260513234966E+00
   .267026483401E+00   .273141055686E+00   .278835770148E+00   .284083945975E+00   .288851724406E+00
   .293096222972E+00   .296763529046E+00   .299786539550E+00   .302082654739E+00   .303551334972E+00
   .304071530662E+00   .303498997310E+00   .301663509446E+00   .298365990043E+00   .293375575414E+00
   .286426639851E+00   .277215810049E+00   .265399006391E+00   .250588556805E+00   .232350440001E+00
   .210201726225E+00   .183608284426E+00   .151982851428E+00   .114683703356E+00   .710139142905E-01
   .202213930930E-01  -.385001016044E-01  -.106008774941E+00  -.183211203312E+00  -.271057075428E+00
  -.370531975857E+00  -.482647889515E+00  -.608431082006E+00  -.748906999512E+00  -.905081839991E+00
  -.107792047920E+01  -.126832049323E+01  -.147708210107E+01  -.170487395686E+01  -.195219484755E+01
 End of Dataset
 PAW_PBE N 08Apr2002
 5.00000000000000000
 parameters from PSCTR are:
   VRHFIN =N: s2p3
   LEXCH  = PE
   EATOM  =   264.5486 eV,   19.4438 Ry

   TITEL  = PAW_PBE N 08Apr2002
   LULTRA =        F    use ultrasoft PP ?
   IUNSCR =        0    unscreen: 0-lin 1-nonlin 2-no
   RPACOR =     .000    partial core radius
   POMASS =   14.001; ZVAL   =    5.000    mass and valenz
   RCORE  =    1.500    outmost cutoff radius
   RWIGS  =    1.400; RWIGS  =     .741    wigner-seitz radius (au A)
   ENMAX  =  400.000; ENMIN  =  300.000 eV
   ICORE  =        2    local potential
   LCOR   =        T    correct aug charges
   LPAW   =        T    paw PP
   EAUG   =  627.112
   DEXC   =     .000
   RMAX   =    2.247    core radius for proj-oper
   RAUG   =    1.300    factor for augmentation sphere
   RDEP   =    1.514    radius for radial grids
   QCUT   =   -5.562; QGAM   =   11.124    optimization parameters
 
   Description
     l     E      TYP  RCUT    TYP  RCUT
     0   .000     23  1.200
     0   .000     23  1.200
     1   .000     23  1.500
     1   .700     23  1.500
     2   .000      7  1.500
   Error from kinetic energy argument (eV)
   NDATA  =      100
   STEP   =   20.000   1.050
  106.      104.      102.      99.8      98.5      95.8      93.0      91.6
  88.9      86.1      84.8      82.0      79.3      76.6      73.9      71.2
  68.6      66.1      63.5      59.9      57.5      55.1      51.7      49.5
  47.4      44.3      41.4      39.5      36.8      34.2      31.7      29.4
  27.2      25.1      23.2      21.4      19.1      17.5      15.6      14.2
  12.6      11.1      9.72      8.50      7.41      6.43      5.55      4.60
  3.93      3.21      2.60      2.18      1.74      1.37      1.02      .784
  .597      .422      .293      .199      .133      .872E-01  .567E-01  .347E-01
  .238E-01  .169E-01  .137E-01  .123E-01  .116E-01  .109E-01  .100E-01  .875E-02
  .733E-02  .589E-02  .445E-02  .343E-02  .259E-02  .207E-02  .177E-02  .163E-02
  .153E-02  .142E-02  .127E-02  .106E-02  .841E-03  .647E-03  .505E-03  .416E-03
  .381E-03  .372E-03  .362E-03  .337E-03  .285E-03  .227E-03  .173E-03  .137E-03
  .121E-03  .118E-03  .117E-03  .109E-03
END of PSCTR-controll parameters
 local part
 124.721915246208937
   .21525339E+02   .21525656E+02   .21522032E+02   .21515994E+02   .21507544E+02
   .21496684E+02   .21483417E+02   .21467744E+02   .21449665E+02   .21429180E+02
   .21406285E+02   .21380973E+02   .21353237E+02   .21323066E+02   .21290447E+02
   .21255363E+02   .21217798E+02   .21177730E+02   .21135137E+02   .21089993E+02
   .21042269E+02   .20991935E+02   .20938955E+02   .20883291E+02   .20824902E+02
   .20763740E+02   .20699757E+02   .20632897E+02   .20563104E+02   .20490316E+02
   .20414467E+02   .20335489E+02   .20253311E+02   .20167858E+02   .20079052E+02
   .19986815E+02   .19891065E+02   .19791718E+02   .19688691E+02   .19581898E+02
   .19471256E+02   .19356678E+02   .19238082E+02   .19115386E+02   .18988510E+02
   .18857379E+02   .18721920E+02   .18582064E+02   .18437751E+02   .18288922E+02
   .18135529E+02   .17977528E+02   .17814885E+02   .17647574E+02   .17475579E+02
   .17298894E+02   .17117523E+02   .16931482E+02   .16740800E+02   .16545516E+02
   .16345683E+02   .16141367E+02   .15932649E+02   .15719621E+02   .15502391E+02
   .15281081E+02   .15055825E+02   .14826774E+02   .14594092E+02   .14357955E+02
   .14118556E+02   .13876099E+02   .13630801E+02   .13382893E+02   .13132616E+02
   .12880223E+02   .12625979E+02   .12370157E+02   .12113038E+02   .11854915E+02
   .11596085E+02   .11336851E+02   .11077523E+02   .10818414E+02   .10559840E+02
   .10302120E+02   .10045571E+02   .97905115E+01   .95372582E+01   .92861240E+01
   .90374180E+01   .87914439E+01   .85484988E+01   .83088720E+01   .80728442E+01
   .78406858E+01   .76126566E+01   .73890041E+01   .71699631E+01   .69557544E+01
   .67465841E+01   .65426430E+01   .63441057E+01   .61511301E+01   .59638566E+01
   .57824083E+01   .56068897E+01   .54373873E+01   .52739689E+01   .51166837E+01
   .49655622E+01   .48206165E+01   .46818399E+01   .45492079E+01   .44226782E+01
   .43021908E+01   .41876690E+01   .40790200E+01   .39761350E+01   .38788905E+01
   .37871488E+01   .37007590E+01   .36195579E+01   .35433708E+01   .34720127E+01
   .34052892E+01   .33429977E+01   .32849282E+01   .32308648E+01   .31805866E+01
   .31338688E+01   .30904841E+01   .30502033E+01   .30127969E+01   .29780362E+01
   .29456937E+01   .29155452E+01   .28873698E+01   .28609512E+01   .28360790E+01
   .28125490E+01   .27901639E+01   .27687349E+01   .27480813E+01   .27280320E+01
   .27084252E+01   .26891097E+01   .26699448E+01   .26508007E+01   .26315588E+01
   .26121120E+01   .25923646E+01   .25722323E+01   .25516426E+01   .25305342E+01
   .25088570E+01   .24865720E+01   .24636508E+01   .24400754E+01   .24158380E+01
   .23909399E+01   .23653919E+01   .23392129E+01   .23124300E+01   .22850775E+01
   .22571964E+01   .22288337E+01   .22000418E+01   .21708779E+01   .21414029E+01
   .21116813E+01   .20817801E+01   .20517682E+01   .20217158E+01   .19916937E+01
   .19617727E+01   .19320229E+01   .19025133E+01   .18733110E+01   .18444807E+01
   .18160846E+01   .17881814E+01   .17608263E+01   .17340705E+01   .17079608E+01
   .16825394E+01   .16578438E+01   .16339065E+01   .16107548E+01   .15884108E+01
   .15668912E+01   .15462077E+01   .15263665E+01   .15073689E+01   .14892109E+01
   .14718839E+01   .14553744E+01   .14396646E+01   .14247325E+01   .14105520E+01
   .13970938E+01   .13843248E+01   .13722094E+01   .13607093E+01   .13497838E+01
   .13393906E+01   .13294859E+01   .13200246E+01   .13109613E+01   .13022499E+01
   .12938446E+01   .12856999E+01   .12777710E+01   .12700145E+01   .12623879E+01
   .12548507E+01   .12473643E+01   .12398923E+01   .12324005E+01   .12248576E+01
   .12172348E+01   .12095065E+01   .12016498E+01   .11936452E+01   .11854762E+01
   .11771294E+01   .11685948E+01   .11598655E+01   .11509376E+01   .11418104E+01
   .11324859E+01   .11229692E+01   .11132678E+01   .11033919E+01   .10933538E+01
   .10831683E+01   .10728517E+01   .10624224E+01   .10519000E+01   .10413055E+01
   .10306609E+01   .10199890E+01   .10093131E+01   .99865680E+00   .98804386E+00
   .97749779E+00   .96704175E+00   .95669834E+00   .94648935E+00   .93643563E+00
   .92655684E+00   .91687140E+00   .90739622E+00   .89814668E+00   .88913645E+00
   .88037744E+00   .87187970E+00   .86365138E+00   .85569867E+00   .84802583E+00
   .84063513E+00   .83352693E+00   .82669967E+00   .82014993E+00   .81387250E+00
   .80786048E+00   .80210534E+00   .79659704E+00   .79132416E+00   .78627401E+00
   .78143278E+00   .77678567E+00   .77231706E+00   .76801063E+00   .76384956E+00
   .75981666E+00   .75589452E+00   .75206570E+00   .74831284E+00   .74461884E+00
   .74096699E+00   .73734110E+00   .73372564E+00   .73010585E+00   .72646786E+00
   .72279880E+00   .71908686E+00   .71532140E+00   .71149297E+00   .70759344E+00
   .70361595E+00   .69955501E+00   .69540648E+00   .69116755E+00   .68683680E+00
   .68241411E+00   .67790064E+00   .67329883E+00   .66861230E+00   .66384579E+00
   .65900510E+00   .65409703E+00   .64912922E+00   .64411015E+00   .63904896E+00
   .63395539E+00   .62883965E+00   .62371232E+00   .61858424E+00   .61346641E+00
   .60836984E+00   .60330550E+00   .59828418E+00   .59331638E+00   .58841224E+00
   .58358145E+00   .57883312E+00   .57417577E+00   .56961719E+00   .56516443E+00
   .56082372E+00   .55660042E+00   .55249900E+00   .54852299E+00   .54467499E+00
   .54095665E+00   .53736863E+00   .53391070E+00   .53058165E+00   .52737938E+00
   .52430093E+00   .52134251E+00   .51849951E+00   .51576664E+00   .51313789E+00
   .51060670E+00   .50816593E+00   .50580801E+00   .50352496E+00   .50130852E+00
   .49915019E+00   .49704134E+00   .49497326E+00   .49293726E+00   .49092475E+00
   .48892731E+00   .48693675E+00   .48494521E+00   .48294519E+00   .48092966E+00
   .47889205E+00   .47682637E+00   .47472720E+00   .47258976E+00   .47040992E+00
   .46818424E+00   .46590999E+00   .46358515E+00   .46120841E+00   .45877919E+00
   .45629760E+00   .45376445E+00   .45118123E+00   .44855007E+00   .44587369E+00
   .44315541E+00   .44039907E+00   .43760898E+00   .43478991E+00   .43194697E+00
   .42908561E+00   .42621155E+00   .42333070E+00   .42044910E+00   .41757289E+00
   .41470822E+00   .41186120E+00   .40903785E+00   .40624400E+00   .40348532E+00
   .40076717E+00   .39809463E+00   .39547240E+00   .39290481E+00   .39039573E+00
   .38794858E+00   .38556629E+00   .38325127E+00   .38100542E+00   .37883007E+00
   .37672604E+00   .37469358E+00   .37273241E+00   .37084172E+00   .36902018E+00
   .36726597E+00   .36557677E+00   .36394984E+00   .36238201E+00   .36086973E+00
   .35940913E+00   .35799601E+00   .35662593E+00   .35529423E+00   .35399608E+00
   .35272654E+00   .35148058E+00   .35025318E+00   .34903928E+00   .34783395E+00
   .34663234E+00   .34542975E+00   .34422169E+00   .34300390E+00   .34177240E+00
   .34052349E+00   .33925382E+00   .33796042E+00   .33664065E+00   .33529231E+00
   .33391360E+00   .33250314E+00   .33105997E+00   .32958359E+00   .32807388E+00
   .32653120E+00   .32495627E+00   .32335023E+00   .32171462E+00   .32005131E+00
   .31836251E+00   .31665075E+00   .31491884E+00   .31316983E+00   .31140699E+00
   .30963376E+00   .30785373E+00   .30607060E+00   .30428812E+00   .30251011E+00
   .30074035E+00   .29898258E+00   .29724048E+00   .29551761E+00   .29381738E+00
   .29214302E+00   .29049756E+00   .28888379E+00   .28730425E+00   .28576120E+00
   .28425659E+00   .28279207E+00   .28136897E+00   .27998827E+00   .27865064E+00
   .27735638E+00   .27610546E+00   .27489752E+00   .27373187E+00   .27260749E+00
   .27152307E+00   .27047699E+00   .26946740E+00   .26849215E+00   .26754889E+00
   .26663508E+00   .26574798E+00   .26488473E+00   .26404232E+00   .26321767E+00
   .26240765E+00   .26160908E+00   .26081879E+00   .26003364E+00   .25925056E+00
   .25846655E+00   .25767874E+00   .25688439E+00   .25608092E+00   .25526595E+00
   .25443730E+00   .25359302E+00   .25273139E+00   .25185093E+00   .25095045E+00
   .25002901E+00   .24908594E+00   .24812086E+00   .24713366E+00   .24612449E+00
   .24509379E+00   .24404226E+00   .24297082E+00   .24188065E+00   .24077315E+00
   .23964992E+00   .23851276E+00   .23736361E+00   .23620457E+00   .23503786E+00
   .23386582E+00   .23269082E+00   .23151532E+00   .23034179E+00   .22917272E+00
   .22801054E+00   .22685768E+00   .22571647E+00   .22458917E+00   .22347790E+00
   .22238468E+00   .22131136E+00   .22025964E+00   .21923101E+00   .21822680E+00
   .21724813E+00   .21629588E+00   .21537076E+00   .21447322E+00   .21360349E+00
   .21276159E+00   .21194731E+00   .21116022E+00   .21039967E+00   .20966484E+00
   .20895467E+00   .20826795E+00   .20760330E+00   .20695917E+00   .20633390E+00
   .20572570E+00   .20513267E+00   .20455284E+00   .20398419E+00   .20342463E+00
   .20287207E+00   .20232442E+00   .20177959E+00   .20123555E+00   .20069032E+00
   .20014199E+00   .19958874E+00   .19902888E+00   .19846082E+00   .19788312E+00
   .19729450E+00   .19669381E+00   .19608010E+00   .19545258E+00   .19481064E+00
   .19415385E+00   .19348199E+00   .19279499E+00   .19209300E+00   .19137633E+00
   .19064547E+00   .18990108E+00   .18914397E+00   .18837513E+00   .18759564E+00
   .18680675E+00   .18600979E+00   .18520621E+00   .18439754E+00   .18358535E+00
   .18277129E+00   .18195704E+00   .18114427E+00   .18033468E+00   .17952994E+00
   .17873169E+00   .17794152E+00   .17716096E+00   .17639144E+00   .17563432E+00
   .17489086E+00   .17416218E+00   .17344930E+00   .17275308E+00   .17207425E+00
   .17141341E+00   .17077099E+00   .17014726E+00   .16954235E+00   .16895623E+00
   .16838871E+00   .16783946E+00   .16730799E+00   .16679368E+00   .16629577E+00
   .16581339E+00   .16534554E+00   .16489113E+00   .16444896E+00   .16401778E+00
   .16359624E+00   .16318296E+00   .16277652E+00   .16237545E+00   .16197831E+00
   .16158362E+00   .16118995E+00   .16079588E+00   .16040004E+00   .16000114E+00
   .15959791E+00   .15918921E+00   .15877397E+00   .15835121E+00   .15792007E+00
   .15747981E+00   .15702980E+00   .15656955E+00   .15609869E+00   .15561698E+00
   .15512431E+00   .15462071E+00   .15410635E+00   .15358150E+00   .15304658E+00
   .15250212E+00   .15194876E+00   .15138724E+00   .15081841E+00   .15024318E+00
   .14966258E+00   .14907765E+00   .14848954E+00   .14789939E+00   .14730842E+00
   .14671785E+00   .14612888E+00   .14554275E+00   .14496066E+00   .14438378E+00
   .14381325E+00   .14325013E+00   .14269547E+00   .14215020E+00   .14161519E+00
   .14109123E+00   .14057900E+00   .14007909E+00   .13959198E+00   .13911804E+00
   .13865753E+00   .13821060E+00   .13777728E+00   .13735749E+00   .13695102E+00
   .13655759E+00   .13617677E+00   .13580805E+00   .13545084E+00   .13510443E+00
   .13476804E+00   .13444084E+00   .13412190E+00   .13381026E+00   .13350490E+00
   .13320479E+00   .13290884E+00   .13261597E+00   .13232509E+00   .13203512E+00
   .13174499E+00   .13145366E+00   .13116014E+00   .13086347E+00   .13056275E+00
   .13025715E+00   .12994591E+00   .12962835E+00   .12930385E+00   .12897193E+00
   .12863214E+00   .12828419E+00   .12792783E+00   .12756295E+00   .12718952E+00
   .12680763E+00   .12641744E+00   .12601923E+00   .12561336E+00   .12520028E+00
   .12478053E+00   .12435471E+00   .12392350E+00   .12348764E+00   .12304794E+00
   .12260523E+00   .12216039E+00   .12171434E+00   .12126801E+00   .12082233E+00
   .12037825E+00   .11993670E+00   .11949860E+00   .11906484E+00   .11863628E+00
   .11821374E+00   .11779797E+00   .11738968E+00   .11698952E+00   .11659805E+00
   .11621578E+00   .11584313E+00   .11548042E+00   .11512791E+00   .11478576E+00
   .11445406E+00   .11413278E+00   .11382182E+00   .11352100E+00   .11323004E+00
   .11294859E+00   .11267623E+00   .11241245E+00   .11215668E+00   .11190830E+00
   .11166662E+00   .11143091E+00   .11120040E+00   .11097429E+00   .11075175E+00
   .11053195E+00   .11031402E+00   .11009712E+00   .10988040E+00   .10966304E+00
   .10944423E+00   .10922320E+00   .10899923E+00   .10877162E+00   .10853974E+00
   .10830301E+00   .10806092E+00   .10781303E+00   .10755896E+00   .10729840E+00
   .10703113E+00   .10675700E+00   .10647594E+00   .10618796E+00   .10589315E+00
   .10559167E+00   .10528376E+00   .10496972E+00   .10464995E+00   .10432487E+00
   .10399498E+00   .10366085E+00   .10332307E+00   .10298229E+00   .10263917E+00
   .10229443E+00   .10194880E+00   .10160301E+00   .10125781E+00   .10091395E+00
   .10057217E+00   .10023318E+00   .99897697E-01   .99566386E-01   .99239885E-01
   .98918791E-01   .98603653E-01   .98294967E-01   .97993177E-01   .97698662E-01
   .97411742E-01   .97132669E-01   .96861627E-01   .96598733E-01   .96344031E-01
   .96097497E-01   .95859038E-01   .95628491E-01   .95405629E-01   .95190160E-01
   .94981733E-01   .94779940E-01   .94584321E-01   .94394371E-01   .94209540E-01
   .94029243E-01   .93852866E-01   .93679768E-01   .93509292E-01   .93340767E-01
   .93173518E-01   .93006871E-01   .92840159E-01   .92672731E-01   .92503954E-01
   .92333221E-01   .92159960E-01   .91983632E-01   .91803744E-01   .91619847E-01
   .91431542E-01   .91238485E-01   .91040388E-01   .90837022E-01   .90628218E-01
   .90413869E-01   .90193931E-01   .89968422E-01   .89737421E-01   .89501068E-01
   .89259562E-01   .89013159E-01   .88762166E-01   .88506941E-01   .88247890E-01
   .87985457E-01   .87720125E-01   .87452409E-01   .87182851E-01   .86912012E-01
   .86640472E-01   .86368819E-01   .86097646E-01   .85827545E-01   .85559100E-01
   .85292882E-01   .85029445E-01   .84769316E-01   .84512997E-01   .84260954E-01
   .84013616E-01   .83771371E-01   .83534560E-01   .83303480E-01   .83078373E-01
   .82859430E-01   .82646790E-01   .82440535E-01   .82240691E-01   .82047230E-01
   .81860069E-01   .81679071E-01   .81504046E-01   .81334755E-01   .81170913E-01
   .81012190E-01   .80858214E-01   .80708579E-01   .80562846E-01   .80420547E-01
   .80281192E-01   .80144271E-01   .80009262E-01   .79875635E-01   .79742855E-01
   .79610390E-01   .79477716E-01   .79344319E-01   .79209704E-01   .79073398E-01
   .78934952E-01   .78793950E-01   .78650009E-01   .78502783E-01   .78351967E-01
   .78197300E-01   .78038565E-01   .77875592E-01   .77708262E-01   .77536501E-01
   .77360287E-01   .77179649E-01   .76994661E-01   .76805448E-01   .76612179E-01
   .76415069E-01   .76214373E-01   .76010386E-01   .75803438E-01   .75593891E-01
   .75382136E-01   .75168589E-01   .74953683E-01   .74737870E-01   .74521611E-01
   .74305377E-01   .74089637E-01   .73874860E-01   .73661508E-01   .73450030E-01
   .73240859E-01   .73034410E-01   .72831071E-01   .72631205E-01   .72435141E-01
   .72243177E-01   .72055572E-01   .71872547E-01   .71694281E-01   .71520913E-01
   .71352537E-01   .71189203E-01   .71030917E-01   .70877640E-01   .70729290E-01
   .70585743E-01   .70446834E-01   .70312357E-01   .70182071E-01   .70055701E-01
   .69932940E-01   .69813452E-01   .69696878E-01   .69582837E-01   .69470931E-01
   .69360748E-01   .69251869E-01   .69143867E-01   .69036316E-01   .68928792E-01
   .68820879E-01   .68712171E-01   .68602280E-01   .68490835E-01   .68377486E-01
   .68261912E-01   .68143818E-01   .68022941E-01   .67899052E-01   .67771958E-01
   .67641500E-01   .67507561E-01   .67370062E-01   .67228962E-01   .67084264E-01
   .66936007E-01   .66784270E-01   .66629171E-01   .66470865E-01   .66309540E-01
   .66145418E-01   .65978751E-01   .65809819E-01   .65638926E-01   .65466397E-01
   .65292577E-01   .65117825E-01   .64942511E-01   .64767012E-01   .64591710E-01
   .64416986E-01   .64243218E-01   .64070775E-01   .63900018E-01   .63731291E-01
   .63564920E-01   .63401212E-01   .63240448E-01   .63082884E-01   .62928747E-01
   .62778232E-01   .62631504E-01   .62488693E-01   .62349891E-01   .62215160E-01
   .62084521E-01   .61957962E-01   .61835432E-01   .61716848E-01   .61602091E-01
   .61491009E-01   .61383419E-01   .61279111E-01   .61177844E-01   .61079355E-01
   .60983360E-01   .60889555E-01   .60797620E-01   .60707223E-01   .60618021E-01
   .60529668E-01   .60441813E-01   .60354105E-01   .60266201E-01   .60177762E-01
   .60088461E-01   .59997984E-01   .59906036E-01   .59812340E-01   .59716643E-01
   .59618713E-01   .59518349E-01   .59415376E-01   .59309648E-01   .59201053E-01
   .59089509E-01   .58974967E-01   .58857410E-01   .58736857E-01   .58613357E-01
 gradient corrections used for XC
 5
 atomic pseudo charge-density
   .50000000E+01   .49905920E+01   .49625297E+01   .49162908E+01   .48526485E+01
   .47726391E+01   .46775203E+01   .45687233E+01   .44478032E+01   .43163885E+01
   .41761349E+01   .40286837E+01   .38756263E+01   .37184763E+01   .35586481E+01
   .33974423E+01   .32360365E+01   .30754820E+01   .29167034E+01   .27605022E+01
   .26075624E+01   .24584576E+01   .23136596E+01   .21735467E+01   .20384129E+01
   .19084767E+01   .17838898E+01   .16647446E+01   .15510824E+01   .14428999E+01
   .13401557E+01   .12427762E+01   .11506608E+01   .10636865E+01   .98171194E+00
   .90458151E+00   .83212827E+00   .76417698E+00   .70054656E+00   .64105227E+00
   .58550763E+00   .53372598E+00   .48552186E+00   .44071220E+00   .39911723E+00
   .36056131E+00   .32487354E+00   .29188830E+00   .26144558E+00   .23339135E+00
   .20757767E+00   .18386290E+00   .16211167E+00   .14219496E+00   .12399000E+00
   .10738022E+00   .92255114E-01   .78510091E-01   .66046338E-01   .54770616E-01
   .44595079E-01   .35437065E-01   .27218895E-01   .19867655E-01   .13314990E-01
   .74968898E-02   .23534788E-02  -.21711896E-02  -.61293344E-02  -.95696441E-02
  -.12537468E-01  -.15074999E-01  -.17221454E-01  -.19013244E-01  -.20484138E-01
  -.21665420E-01  -.22586039E-01  -.23272752E-01  -.23750261E-01  -.24041341E-01
  -.24166965E-01  -.24146416E-01  -.23997402E-01  -.23736157E-01  -.23377542E-01
  -.22935135E-01  -.22421320E-01  -.21847372E-01  -.21223529E-01  -.20559071E-01
  -.19862388E-01  -.19141041E-01  -.18401826E-01  -.17650830E-01  -.16893487E-01
  -.16134623E-01  -.15378508E-01  -.14628898E-01  -.13889078E-01  -.13161896E-01
  -.12449805E-01  -.11754893E-01  -.11078916E-01  -.10423328E-01  -.97893049E-02
  -.91777749E-02  -.85894391E-02  -.80247948E-02  -.74841557E-02  -.69676714E-02
  -.64753449E-02  -.60070492E-02  -.55625423E-02  -.51414814E-02  -.47434360E-02
  -.43679000E-02  -.40143022E-02  -.36820170E-02  -.33703735E-02  -.30786639E-02
  -.28061514E-02  -.25520773E-02  -.23156672E-02  -.20961372E-02  -.18926989E-02
  -.17045640E-02  -.15309487E-02  -.13710774E-02  -.12241863E-02  -.10895255E-02
  -.96636251E-03  -.85398380E-03  -.75169686E-03  -.65883175E-03  -.57474238E-03
  -.49880750E-03  -.43043156E-03  -.36904518E-03  -.31410564E-03  -.26509696E-03
  -.22153000E-03  -.18294233E-03  -.14889794E-03  -.11898693E-03  -.92824951E-04
  -.70052694E-04  -.50335202E-04  -.33361152E-04  -.18842059E-04  -.65114415E-05
   .38760630E-05   .12545615E-04   .19703113E-04   .25536152E-04   .30214996E-04
   .33893552E-04   .36710342E-04   .38789474E-04   .40241596E-04   .41164839E-04
   .41645733E-04   .41760111E-04   .41573973E-04   .41144334E-04   .40520031E-04
   .39742502E-04   .38846523E-04   .37860918E-04   .36809223E-04   .35710316E-04
   .34579005E-04   .33426582E-04   .32261331E-04   .31089003E-04   .29913252E-04
   .28736026E-04   .27557934E-04   .26378567E-04   .25196786E-04   .24010980E-04
   .22819290E-04   .21619803E-04   .20410715E-04   .19190469E-04   .17957865E-04
   .16712152E-04   .15453087E-04   .14180986E-04   .12896746E-04   .11601858E-04
   .10298397E-04   .89890087E-05   .76768723E-05   .63656651E-05   .50595101E-05
   .37629206E-05   .24807380E-05   .12180659E-05  -.19798875E-07  -.12274369E-05
  -.23993774E-05  -.35301683E-05  -.46144459E-05  -.56470012E-05  -.66228435E-05
  -.75372600E-05  -.83858715E-05  -.91646822E-05  -.98701252E-05  -.10499102E-04
  -.11049014E-04  -.11517794E-04  -.11903922E-04  -.12206444E-04  -.12424981E-04
  -.12559728E-04  -.12611453E-04  -.12581489E-04  -.12471719E-04  -.12284554E-04
  -.12022915E-04  -.11690196E-04  -.11290240E-04  -.10827295E-04  -.10305982E-04
  -.97312494E-05  -.91083283E-05  -.84426897E-05  -.77399963E-05  -.70060550E-05
  -.62467693E-05  -.54680919E-05  -.46759773E-05  -.38763362E-05  -.30749904E-05
  -.22776305E-05  -.14897744E-05  -.71672956E-06   .36443421E-07   .76496339E-06
   .14643586E-05   .21304932E-05   .27595907E-05   .33482533E-05   .38934783E-05
   .43926705E-05   .48436512E-05   .52446635E-05   .55943743E-05   .58918723E-05
   .61366633E-05   .63286623E-05   .64681816E-05   .65559178E-05   .65929340E-05
   .65806415E-05   .65207784E-05   .64153856E-05   .62667826E-05   .60775406E-05
   .58504548E-05   .55885158E-05   .52948804E-05   .49728414E-05   .46257983E-05
   .42572269E-05   .38706503E-05   .34696093E-05   .30576348E-05   .26382202E-05
   .22147954E-05   .17907023E-05   .13691712E-05   .95329963E-06   .54603217E-06
   .15014276E-06  -.23178140E-06  -.59735377E-06  -.94440039E-06  -.12709696E-05
  -.15753399E-05  -.18560253E-05  -.21117787E-05  -.23415937E-05  -.25447040E-05
  -.27205803E-05  -.28689269E-05  -.29896750E-05  -.30829753E-05  -.31491886E-05
  -.31888754E-05  -.32027842E-05  -.31918380E-05  -.31571211E-05  -.30998637E-05
  -.30214269E-05  -.29232866E-05  -.28070174E-05  -.26742757E-05  -.25267834E-05
  -.23663114E-05  -.21946629E-05  -.20136578E-05  -.18251170E-05  -.16308473E-05
  -.14326271E-05  -.12321932E-05  -.10312275E-05  -.83134591E-06  -.63408706E-06
  -.44090291E-06  -.25315007E-06  -.72082309E-07   .10115571E-06   .26553358E-06
   .42013911E-06   .56418111E-06   .69699107E-06   .81802369E-06   .92685633E-06
   .10231874E-05   .11068339E-05   .11777277E-05   .12359116E-05   .12815336E-05
   .13148415E-05   .13361764E-05   .13459651E-05   .13447133E-05   .13329972E-05
   .13114554E-05   .12807803E-05   .12417099E-05   .11950187E-05   .11415093E-05
   .10820039E-05   .10173362E-05   .94834252E-06   .87585502E-06   .80069361E-06
   .72365918E-06   .64552712E-06   .56704124E-06   .48890838E-06   .41179350E-06
   .33631544E-06   .26304326E-06   .19249323E-06   .12512644E-06   .61347112E-07
   .15013959E-08  -.54123064E-07  -.10529706E-06  -.15184918E-06  -.19366454E-06
  -.23068312E-06  -.26289758E-06  -.29035056E-06  -.31313174E-06  -.33137439E-06
  -.34525179E-06  -.35497319E-06  -.36077980E-06  -.36294038E-06  -.36174694E-06
  -.35751024E-06  -.35055532E-06  -.34121710E-06  -.32983599E-06  -.31675370E-06
  -.30230915E-06  -.28683460E-06  -.27065203E-06  -.25406973E-06  -.23737925E-06
  -.22085261E-06  -.20473984E-06  -.18926690E-06  -.17463392E-06  -.16101384E-06
  -.14855140E-06  -.13736248E-06  -.12753383E-06  -.11912313E-06  -.11215946E-06
  -.10664396E-06  -.10255098E-06  -.99829372E-07  -.98404126E-07  -.98178232E-07
  -.99034758E-07  -.10083911E-06  -.10344147E-06  -.10667933E-06  -.11038012E-06
  -.11436396E-06  -.11844637E-06  -.12244103E-06  -.12616246E-06  -.12942871E-06
  -.13206388E-06  -.13390062E-06  -.13478239E-06  -.13456562E-06  -.13312169E-06
  -.13033864E-06  -.12612274E-06  -.12039978E-06  -.11311612E-06  -.10423951E-06
  -.93759592E-07  -.81688225E-07  -.68059479E-07  -.52929400E-07  -.36375516E-07
  -.18496093E-07   .59083727E-09   .20748680E-07   .41823686E-07   .63646550E-07
   .86034184E-07   .10879164E-06   .13171419E-06   .15458944E-06   .17719964E-06
   .19932399E-06   .22074095E-06   .24123065E-06   .26057721E-06   .27857110E-06
   .29501134E-06   .30970775E-06   .32248293E-06   .33317430E-06   .34163585E-06
   .34773977E-06   .35137799E-06   .35246337E-06   .35093080E-06   .34673811E-06
   .33986661E-06   .33032159E-06   .31813243E-06   .30335259E-06   .28605933E-06
   .26635316E-06   .24435712E-06   .22021587E-06   .19409449E-06   .16617715E-06
   .13666557E-06   .10577734E-06   .73744067E-07   .40809388E-07   .72268839E-08
  -.26742112E-07  -.60830778E-07  -.94769116E-07  -.12828631E-06  -.16111307E-06
  -.19298401E-06  -.22363992E-06  -.25283007E-06  -.28031439E-06  -.30586555E-06
  -.32927098E-06  -.35033470E-06  -.36887904E-06  -.38474620E-06  -.39779963E-06
  -.40792521E-06  -.41503227E-06  -.41905440E-06  -.41994998E-06  -.41770262E-06
  -.41232129E-06  -.40384026E-06  -.39231881E-06  -.37784078E-06  -.36051386E-06
  -.34046865E-06  -.31785766E-06  -.29285395E-06  -.26564975E-06  -.23645483E-06
  -.20549476E-06  -.17300905E-06  -.13924918E-06  -.10447650E-06  -.68960099E-07
  -.32974573E-07   .32021886E-08   .39291286E-07   .75015070E-07   .11009939E-06
   .14427579E-06   .17728369E-06   .20887241E-06   .23880320E-06   .26685110E-06
   .29280672E-06   .31647781E-06   .33769079E-06   .35629200E-06   .37214889E-06
   .38515099E-06   .39521062E-06   .40226354E-06   .40626934E-06   .40721161E-06
   .40509793E-06   .39995973E-06   .39185186E-06   .38085203E-06   .36706007E-06
   .35059697E-06   .33160382E-06   .31024055E-06   .28668454E-06   .26112910E-06
   .23378183E-06   .20486289E-06   .17460317E-06   .14324238E-06   .11102709E-06
   .78208763E-07   .45041704E-07   .11781052E-07  -.21319243E-07  -.54008405E-07
  -.86040780E-07  -.11717773E-06  -.14718944E-06  -.17585665E-06  -.20297232E-06
  -.22834310E-06  -.25179075E-06  -.27315341E-06  -.29228671E-06  -.30906475E-06
  -.32338092E-06  -.33514854E-06  -.34430137E-06  -.35079394E-06  -.35460166E-06
  -.35572087E-06  -.35416862E-06  -.34998237E-06  -.34321945E-06  -.33395645E-06
  -.32228841E-06  -.30832788E-06  -.29220390E-06  -.27406076E-06  -.25405678E-06
  -.23236289E-06  -.20916115E-06  -.18464327E-06  -.15900897E-06  -.13246433E-06
  -.10522016E-06  -.77490279E-07  -.49489827E-07  -.21433587E-07   .64656829E-08
   .33998875E-07   .60962109E-07   .87158249E-07   .11239835E-06   .13650303E-06
   .15930374E-06   .18064391E-06   .20038007E-06   .21838274E-06   .23453730E-06
   .24874464E-06   .26092179E-06   .27100231E-06   .27893661E-06   .28469210E-06
   .28825326E-06   .28962146E-06   .28881482E-06   .28586776E-06   .28083059E-06
   .27376886E-06   .26476265E-06   .25390581E-06   .24130495E-06   .22707854E-06
   .21135578E-06   .19427545E-06   .17598476E-06   .15663803E-06   .13639545E-06
   .11542173E-06   .93884811E-07   .71954483E-07   .49801080E-07   .27594155E-07
   .55011930E-08  -.16313651E-07  -.37690755E-07  -.58476192E-07  -.78522823E-07
  -.97691324E-07  -.11585113E-06  -.13288132E-06  -.14867135E-06  -.16312181E-06
  -.17614495E-06  -.18766518E-06  -.19761949E-06  -.20595769E-06  -.21264264E-06
  -.21765028E-06  -.22096960E-06  -.22260256E-06  -.22256382E-06  -.22088046E-06
  -.21759151E-06  -.21274750E-06  -.20640990E-06  -.19865041E-06  -.18955027E-06
  -.17919950E-06  -.16769604E-06  -.15514485E-06  -.14165704E-06  -.12734887E-06
  -.11234081E-06  -.96756516E-07  -.80721857E-07  -.64363908E-07  -.47809962E-07
  -.31186558E-07  -.14618531E-07   .17719080E-08   .17866053E-07   .33549543E-07
   .48713153E-07   .63253529E-07   .77073867E-07   .90084529E-07   .10220359E-06
   .11335730E-06   .12348054E-06   .13251709E-06   .14041994E-06   .14715144E-06
   .15268342E-06   .15699722E-06   .16008366E-06   .16194291E-06   .16258431E-06
   .16202613E-06   .16029526E-06   .15742682E-06   .15346374E-06   .14845629E-06
   .14246156E-06   .13554286E-06   .12776913E-06   .11921435E-06   .10995681E-06
   .10007846E-06   .89664262E-07   .78801405E-07   .67578665E-07   .56085679E-07
   .44412257E-07   .32647700E-07   .20880142E-07   .91959078E-08  -.23210932E-08
  -.13589950E-07  -.24533292E-07  -.35077795E-07  -.45154641E-07  -.54699944E-07
  -.63655115E-07  -.71967187E-07  -.79589091E-07  -.86479879E-07  -.92604889E-07
  -.97935871E-07  -.10245105E-06  -.10613516E-06  -.10897937E-06  -.11098126E-06
  -.11214465E-06  -.11247944E-06  -.11200142E-06  -.11073197E-06  -.10869782E-06
  -.10593069E-06  -.10246697E-06  -.98347290E-07  -.93616181E-07  -.88321604E-07
  -.82514527E-07  -.76248479E-07  -.69579085E-07  -.62563608E-07  -.55260479E-07
  -.47728841E-07  -.40028092E-07  -.32217437E-07  -.24355456E-07  -.16499692E-07
  -.87062413E-08  -.10293857E-08   .64787683E-08   .13768616E-07   .20793359E-07
   .27509274E-07   .33875960E-07   .39856547E-07   .45417879E-07   .50530655E-07
   .55169553E-07   .59313300E-07   .62944731E-07   .66050801E-07   .68622574E-07
   .70655174E-07   .72147720E-07   .73103217E-07   .73528434E-07   .73433752E-07
   .72832987E-07   .71743200E-07   .70184484E-07   .68179729E-07   .65754385E-07
   .62936204E-07   .59754974E-07   .56242248E-07   .52431068E-07   .48355681E-07
   .44051262E-07   .39553633E-07   .34898986E-07   .30123616E-07   .25263655E-07
   .20354821E-07   .15432173E-07   .10529880E-07   .56810070E-08   .91730945E-09
  -.37309522E-08  -.82351822E-08  -.12568602E-07  -.16706386E-07  -.20625774E-07
  -.24306174E-07  -.27729235E-07  -.30878913E-07  -.33741506E-07  -.36305683E-07
  -.38562485E-07  -.40505317E-07  -.42129917E-07  -.43434310E-07  -.44418757E-07
  -.45085672E-07  -.45439545E-07  -.45486839E-07  -.45235883E-07  -.44696757E-07
  -.43881163E-07  -.42802293E-07  -.41474690E-07  -.39914107E-07  -.38137357E-07
  -.36162163E-07  -.34007015E-07  -.31691011E-07  -.29233715E-07  -.26655007E-07
  -.23974941E-07  -.21213605E-07  -.18390987E-07  -.15526845E-07  -.12640588E-07
  -.97511547E-08  -.68769120E-08  -.40355503E-08  -.12439938E-08   .14816829E-08
   .41263292E-08   .66757834E-08   .91169289E-08   .11437742E-07   .13627327E-07
   .15675952E-07   .17575060E-07   .19317290E-07   .20896475E-07   .22307640E-07
   .23546991E-07   .24611897E-07   .25500862E-07   .26213497E-07   .26750484E-07
   .27113529E-07   .27305321E-07   .27329480E-07   .27190499E-07   .26893693E-07
   .26445132E-07   .25851586E-07   .25120456E-07   .24259715E-07   .23277835E-07
   .22183728E-07   .20986680E-07   .19696282E-07   .18322370E-07   .16874960E-07
   .15364189E-07   .13800254E-07   .12193356E-07   .10553641E-07   .88911541E-08
   .72157829E-08   .55372142E-08   .38648879E-08   .22079556E-08   .57524227E-09
  -.10247893E-08  -.25840712E-08  -.40949597E-08  -.55502613E-08  -.69432565E-08
  -.82677200E-08  -.95179377E-08  -.10688721E-07  -.11775421E-07  -.12773931E-07
  -.13680699E-07  -.14492731E-07  -.15207587E-07  -.15823383E-07  -.16338788E-07
  -.16753015E-07  -.17065817E-07  -.17277472E-07  -.17388774E-07  -.17401019E-07
  -.17315985E-07  -.17135920E-07  -.16863520E-07  -.16501906E-07  -.16054608E-07
  -.15525533E-07  -.14918949E-07  -.14239450E-07  -.13491939E-07  -.12681591E-07
  -.11813829E-07  -.10894292E-07  -.99288083E-08  -.89233601E-08  -.78840552E-08
  -.68170944E-08  -.57287398E-08  -.46252828E-08  -.35130125E-08  -.23981836E-08
  -.12869854E-08  -.18551073E-09   .90027465E-09   .19645614E-08   .30017256E-08
   .40063565E-08   .49732833E-08   .58976006E-08   .67746924E-08   .76002545E-08
   .83703155E-08   .90812557E-08   .97298247E-08   .10313156E-07   .10828781E-07
   .11274638E-07   .11649084E-07   .11950898E-07   .12179287E-07   .12333884E-07
   .12414755E-07   .12422385E-07   .12357681E-07   .12221959E-07   .12016936E-07
   .11744714E-07   .11407769E-07   .11008928E-07   .10551354E-07   .10038525E-07
   .94742066E-08   .88624290E-08   .82074615E-08   .75137832E-08   .67860543E-08
   .60290856E-08   .52478079E-08   .44472402E-08   .36324577E-08   .28085595E-08
   .19806369E-08   .11537410E-08   .33285152E-09  -.47715396E-09  -.12715300E-08
  -.20456920E-08  -.27952437E-08  -.35160030E-08  -.42040268E-08  -.48556331E-08
  -.54674218E-08  -.60362933E-08  -.65594647E-08  -.70344839E-08  -.74592409E-08
  -.78319773E-08  -.81512925E-08  -.84161482E-08  -.86258700E-08  -.87801457E-08
  -.88790227E-08  -.89229013E-08  -.89125269E-08  -.88489789E-08  -.87336583E-08
  -.85682725E-08  -.83548187E-08  -.80955649E-08  -.77930300E-08  -.74499618E-08
  -.70693141E-08  -.66542227E-08  -.62079804E-08  -.57340111E-08  -.52358442E-08
  -.47170875E-08  -.41814013E-08  -.36324718E-08  -.30739853E-08  -.25096024E-08
  -.19429338E-08  -.13775159E-08  -.81678855E-09  -.26407303E-09   .27744774E-09
   .80474795E-09   .13149759E-08   .18054693E-08   .22737688E-08   .27176294E-08
   .31350305E-08   .35241834E-08   .38835369E-08   .42117810E-08   .45078489E-08
   .47709166E-08   .50004012E-08   .51959564E-08   .53574678E-08   .54850447E-08
   .55790121E-08   .56398997E-08   .56684310E-08   .56655104E-08   .56322096E-08
   .55697530E-08   .54795027E-08   .53629420E-08   .52216601E-08   .50573350E-08
   .48717170E-08   .46666129E-08   .44438692E-08   .42053565E-08   .39529542E-08
   .36885356E-08   .34139541E-08   .31310302E-08   .28415390E-08   .25471997E-08
   .22496653E-08   .19505138E-08   .16512408E-08   .13532526E-08   .10578620E-08
   .76628374E-09   .47963236E-09   .19892086E-09  -.74939500E-10  -.34113813E-09
 25.1333556480996805 T
 Non local Part
 0 2 1.18927618932127976
 4.95117802918466055 -0.263395023042996779 -0.263395023042996779 -0.110466427860580457E-01
 Reciprocal Space Part
   .45110332E+01   .45016018E+01   .44733853E+01   .44266159E+01   .43616785E+01
   .42791062E+01   .41795760E+01   .40639015E+01   .39330256E+01   .37880107E+01
   .36300287E+01   .34603494E+01   .32803279E+01   .30913912E+01   .28950241E+01
   .26927541E+01   .24861367E+01   .22767392E+01   .20661255E+01   .18558400E+01
   .16473926E+01   .14422431E+01   .12417875E+01   .10473435E+01   .86013837E+00
   .68129711E+00   .51183207E+00   .35263414E+00   .20446525E+00   .67952726E-01
  -.56414778E-01  -.16828949E+00  -.26746490E+00  -.35387441E+00  -.42758802E+00
  -.48880744E+00  -.53785942E+00  -.57518757E+00  -.60134276E+00  -.61697220E+00
  -.62280752E+00  -.61965191E+00  -.60836658E+00  -.58985678E+00  -.56505763E+00
  -.53491992E+00  -.50039616E+00  -.46242710E+00  -.42192896E+00  -.37978147E+00
  -.33681701E+00  -.29381096E+00  -.25147340E+00  -.21044217E+00  -.17127755E+00
  -.13445850E+00  -.10038034E+00  -.69354156E-01  -.41607581E-01  -.17287075E-01
   .35385049E-02   .20873119E-01   .34787714E-01   .45413499E-01   .52934499E-01
   .57579586E-01   .59614153E-01   .59331627E-01   .57045014E-01   .53078621E-01
   .47760155E-01   .41413304E-01   .34350968E-01   .26869222E-01   .19242103E-01
   .11717294E-01   .45127375E-02  -.21858099E-02  -.82262730E-02  -.13490848E-01
  -.17895726E-01  -.21390012E-01  -.23953936E-01  -.25596433E-01  -.26352204E-01
  -.26278367E-01  -.25450813E-01  -.23960375E-01  -.21908932E-01  -.19405540E-01
  -.16562704E-01  -.13492862E-01  -.10305176E-01  -.71026792E-02  -.39798380E-02
  -.10205562E-02   .17033488E-02   .41331990E-02   .62240414E-02   .79447876E-02
 Real Space Part
  -.86094301E+01  -.85611105E+01  -.84167483E+01  -.81781252E+01  -.78481830E+01
  -.74309829E+01  -.69316493E+01  -.63562983E+01  -.57119525E+01  -.50064432E+01
  -.42483008E+01  -.34466354E+01  -.26110094E+01  -.17513030E+01  -.87757604E+00
   .72880756E-04   .87164777E+00   .17273941E+01   .25579338E+01   .33543935E+01
   .41085244E+01   .48128115E+01   .54605704E+01   .60460296E+01   .65643980E+01
   .70119144E+01   .73858811E+01   .76846774E+01   .79077567E+01   .80556242E+01
   .81297977E+01   .81327519E+01   .80678469E+01   .79392434E+01   .77518064E+01
   .75109982E+01   .72227648E+01   .68934174E+01   .65295112E+01   .61377239E+01
   .57247376E+01   .52971254E+01   .48612447E+01   .44231403E+01   .39884581E+01
   .35623708E+01   .31495175E+01   .27539570E+01   .23791357E+01   .20278696E+01
   .17023408E+01   .14041072E+01   .11341243E+01   .89277839E+00   .67992962E+00
   .49496245E+00   .33684294E+00   .20418031E+00   .95291152E-01   .82645657E-02
  -.58973508E-01  -.10859825E+00  -.14282762E+00  -.16386890E+00  -.17387098E+00
  -.17488322E+00  -.16882125E+00  -.15744003E+00  -.14231409E+00  -.12482489E+00
  -.10615470E+00  -.87286671E-01  -.69010266E-01  -.51931376E-01  -.36486195E-01
  -.22958054E-01  -.11496301E-01  -.21364106E-02   .51794840E-02   .10582333E-01
   .14256819E-01   .16423418E-01   .17322291E-01   .17199279E-01   .16294208E-01
   .14831546E-01   .13013419E-01   .11014865E-01   .89811428E-02   .70268855E-02
   .52368035E-02   .36676579E-02   .23511940E-02   .12977375E-02   .50017228E-03
  -.61956935E-04  -.41843818E-03  -.60466432E-03  -.65832441E-03  -.61661233E-03
 Reciprocal Space Part
  -.23421087E+02  -.23273355E+02  -.22831452E+02  -.22099253E+02  -.21083198E+02
  -.19792270E+02  -.18237952E+02  -.16434181E+02  -.14397273E+02  -.12145841E+02
  -.97006877E+01  -.70846742E+01  -.43225642E+01  -.14408427E+01   .15324956E+01
   .45681853E+01   .76359586E+01   .10704842E+02   .13743479E+02   .16720473E+02
   .19604756E+02   .22365965E+02   .24974835E+02   .27403588E+02   .29626322E+02
   .31619392E+02   .33361764E+02   .34835351E+02   .36025307E+02   .36920290E+02
   .37512663E+02   .37798651E+02   .37778438E+02   .37456193E+02   .36840037E+02
   .35941943E+02   .34777560E+02   .33365982E+02   .31729449E+02   .29892989E+02
   .27884011E+02   .25731855E+02   .23467300E+02   .21122056E+02   .18728225E+02
   .16317773E+02   .13921993E+02   .11570998E+02   .92932264E+01   .71149952E+01
   .50600959E+01   .31494432E+01   .14007868E+01  -.17151112E+00  -.15566273E+01
  -.27473563E+01  -.37401152E+01  -.45348768E+01  -.51350321E+01  -.55471882E+01
  -.57809063E+01  -.58483875E+01  -.57641139E+01  -.55444554E+01  -.52072499E+01
  -.47713697E+01  -.42562818E+01  -.36816139E+01  -.30667355E+01  -.24303627E+01
  -.17901954E+01  -.11625950E+01  -.56230682E+00  -.22338475E-02   .50673618E+00
   .95584746E+00   .13385368E+01   .16504390E+01   .18893393E+01   .20550765E+01
   .21494018E+01   .21757985E+01   .21392691E+01   .20460979E+01   .19035944E+01
   .17198275E+01   .15033557E+01   .12629625E+01   .10074022E+01   .74516327E+00
   .48425446E+00   .23201758E+00  -.50285769E-02  -.22131131E+00  -.41229241E+00
  -.57452147E+00  -.70565470E+00  -.80444084E+00  -.87067655E+00  -.90513442E+00
 Real Space Part
   .63381100E+03   .63319012E+03   .63131750E+03   .62816376E+03   .62368168E+03
   .61780880E+03   .61047088E+03   .60158613E+03   .59107002E+03   .57884057E+03
   .56482374E+03   .54895894E+03   .53120425E+03   .51154126E+03   .48997933E+03
   .46655897E+03   .44135447E+03   .41447533E+03   .38606669E+03   .35630860E+03
   .32541412E+03   .29362636E+03   .26121444E+03   .22846869E+03   .19569489E+03
   .16320811E+03   .13132608E+03   .10036231E+03   .70619333E+02   .42382108E+02
   .15911834E+02  -.85596188E+01  -.30834522E+02  -.50753222E+02  -.68197063E+02
  -.83090262E+02  -.95400666E+02  -.10513942E+03  -.11235956E+03  -.11715360E+03
  -.11965022E+03  -.12001018E+03  -.11842152E+03  -.11509437E+03  -.11025536E+03
  -.10414185E+03  -.96996277E+02  -.89060546E+02  -.80570815E+02  -.71752690E+02
  -.62816995E+02  -.53956169E+02  -.45341390E+02  -.37120431E+02  -.29416281E+02
  -.22326518E+02  -.15923395E+02  -.10254583E+02  -.53445136E+01  -.11962215E+01
   .22063992E+01   .48960255E+01   .69191295E+01   .83330937E+01   .92033167E+01
   .96003976E+01   .95974783E+01   .92678119E+01   .86826086E+01   .79092012E+01
   .70095537E+01   .60391244E+01   .50460814E+01   .40708571E+01   .31460162E+01
   .22964049E+01   .15395420E+01   .88620818E+00   .34118706E+00  -.95888129E-01
  -.42962692E+00  -.66795538E+00  -.82120853E+00  -.90127378E+00  -.92081157E+00
  -.89257293E+00  -.82882753E+00  -.74090914E+00  -.63887981E+00  -.53130903E+00
  -.42515946E+00  -.32576754E+00  -.23690478E+00  -.16090373E+00  -.98832269E-01
  -.50699764E-01  -.15679662E-01   .76653924E-02   .21167912E-01   .26859071E-01
 Non local Part
 1 2 1.18927618932127976
 1.22338086304260707 2.14672215900143470 2.14672215900143470 1.34142492866586371
 Reciprocal Space Part
   .00000000E+00   .23087905E+00   .45959127E+00   .68400091E+00   .90203382E+00
   .11117069E+01   .13111558E+01   .14986608E+01   .16726693E+01   .18318169E+01
   .19749432E+01   .21011058E+01   .22095891E+01   .22999106E+01   .23718221E+01
   .24253074E+01   .24605768E+01   .24780568E+01   .24783780E+01   .24623582E+01
   .24309845E+01   .23853921E+01   .23268417E+01   .22566954E+01   .21763917E+01
   .20874203E+01   .19912973E+01   .18895402E+01   .17836444E+01   .16750614E+01
   .15651783E+01   .14552996E+01   .13466315E+01   .12402685E+01   .11371831E+01
   .10382178E+01   .94408030E+00   .85534161E+00   .77243620E+00   .69566530E+00
   .62520229E+00   .56110016E+00   .50330085E+00   .45164614E+00   .40588965E+00
   .36570986E+00   .33072359E+00   .30049971E+00   .27457284E+00   .25245664E+00
   .23365641E+00   .21768089E+00   .20405296E+00   .19231901E+00   .18205707E+00
   .17288333E+00   .16445728E+00   .15648520E+00   .14872228E+00   .14097322E+00
   .13309153E+00   .12497766E+00   .11657594E+00   .10787080E+00   .98882055E-01
   .89659783E-01   .80278770E-01   .70832776E-01   .61428782E-01   .52181379E-01
   .43207446E-01   .34621242E-01   .26530022E-01   .19030259E-01   .12204534E-01
   .61191437E-02   .82242341E-03  -.36562049E-02  -.73064915E-02  -.10136968E-01
  -.12173970E-01  -.13460135E-01  -.14052480E-01  -.14020125E-01  -.13441776E-01
  -.12403052E-01  -.10993756E-01  -.93051748E-02  -.74274931E-02  -.54473952E-02
  -.34459148E-02  -.14965856E-02   .33606769E-03   .19976745E-02   .34447858E-02
   .46452638E-02   .55783064E-02   .62341281E-02   .66133293E-02   .67259937E-02
 Real Space Part
   .00000000E+00   .13215069E+01   .26294969E+01   .39106933E+01   .51522943E+01
   .63421954E+01   .74691962E+01   .85231847E+01   .94952962E+01   .10378043E+02
   .11165412E+02   .11852928E+02   .12437685E+02   .12918341E+02   .13295078E+02
   .13569538E+02   .13744717E+02   .13824853E+02   .13815270E+02   .13722228E+02
   .13552742E+02   .13314409E+02   .13015219E+02   .12663382E+02   .12267150E+02
   .11834657E+02   .11373774E+02   .10891977E+02   .10396235E+02   .98929241E+01
   .93877615E+01   .88857577E+01   .83911960E+01   .79076300E+01   .74379012E+01
   .69841722E+01   .65479759E+01   .61302751E+01   .57315315E+01   .53517807E+01
   .49907092E+01   .46477329E+01   .43220719E+01   .40128215E+01   .37190165E+01
   .34396875E+01   .31739079E+01   .29208318E+01   .26797209E+01   .24499626E+01
   .22310781E+01   .20227220E+01   .18246746E+01   .16368277E+01   .14591655E+01
   .12917418E+01   .11346558E+01   .98802616E+00   .85196638E+00   .72656170E+00
   .61184854E+00   .50779745E+00   .41429997E+00   .33115985E+00   .25808856E+00
   .19470520E+00   .14054042E+00   .95043957E-01   .57595279E-01   .27516660E-01
   .40880398E-02  -.13437072E-01  -.25815329E-01  -.33797593E-01  -.38113877E-01
  -.39459718E-01  -.38484377E-01  -.35781193E-01  -.31880284E-01  -.27243673E-01
  -.22262838E-01  -.17258560E-01  -.12482876E-01  -.81228831E-02  -.43060697E-02
  -.11068380E-02   .14461418E-02   .33621050E-02   .46802303E-02   .54618535E-02
   .57831268E-02   .57283441E-02   .53841033E-02   .48344194E-02   .41568509E-02
   .34196496E-02   .26798992E-02   .19825694E-02   .13603817E-02   .83435804E-03
 Reciprocal Space Part
   .00000000E+00  -.56102570E+00  -.11037022E+01  -.16102191E+01  -.20638288E+01
  -.24493415E+01  -.27535767E+01  -.29657600E+01  -.30778533E+01  -.30848099E+01
  -.29847467E+01  -.27790293E+01  -.24722679E+01  -.20722225E+01  -.15896218E+01
  -.10378987E+01  -.43285099E+00   .20776432E+00   .86469277E+00   .15176869E+01
   .21460407E+01   .27291393E+01   .32470096E+01   .36808573E+01   .40135754E+01
   .42302116E+01   .43183819E+01   .42686192E+01   .40746487E+01   .37335821E+01
   .32460264E+01   .26161042E+01   .18513852E+01   .96273107E+00  -.35941448E-01
  -.11279743E+01  -.22943490E+01  -.35141250E+01  -.47649242E+01  -.60234495E+01
  -.72660228E+01  -.84691303E+01  -.96099598E+01  -.10666918E+02  -.11620116E+02
  -.12451803E+02  -.13146758E+02  -.13692602E+02  -.14080048E+02  -.14303074E+02
  -.14359016E+02  -.14248574E+02  -.13975752E+02  -.13547709E+02  -.12974543E+02
  -.12269015E+02  -.11446207E+02  -.10523144E+02  -.95183705E+01  -.84515043E+01
  -.73427801E+01  -.62125867E+01  -.50810155E+01  -.39674285E+01  -.28900568E+01
  -.18656391E+01  -.90910620E+00  -.33319509E-01   .75113191E+00   .14360734E+01
   .20158235E+01   .24872107E+01   .28495281E+01   .31044322E+01   .32557875E+01
   .33094653E+01   .32731016E+01   .31558237E+01   .29679526E+01   .27206902E+01
   .24257995E+01   .20952878E+01   .17410990E+01   .13748237E+01   .10074346E+01
   .64905053E+00   .30873683E+00  -.56564782E-02  -.28761534E+00  -.53204026E+00
  -.73528274E+00  -.89514089E+00  -.10108163E+01  -.10828355E+01  -.11129403E+01
  -.11039508E+01  -.10596079E+01  -.98439952E+00  -.88337673E+00  -.76196590E+00
 Real Space Part
   .00000000E+00  -.40768983E+02  -.80817076E+02  -.11943980E+03  -.15596509E+03
  -.18976834E+03  -.22028635E+03  -.24702946E+03  -.26959189E+03  -.28765979E+03
  -.30101700E+03  -.30954818E+03  -.31323950E+03  -.31217675E+03  -.30654097E+03
  -.29660192E+03  -.28270939E+03  -.26528281E+03  -.24479939E+03  -.22178120E+03
  -.19678147E+03  -.17037066E+03  -.14312252E+03  -.11560061E+03  -.88345627E+02
  -.61863814E+02  -.36616718E+02  -.13012581E+02   .86005280E+01   .27939706E+02
   .44790282E+02   .59006963E+02   .70513135E+02   .79298406E+02   .85414582E+02
   .88970239E+02   .90124155E+02   .89077826E+02   .86067334E+02   .81354855E+02
   .75220042E+02   .67951559E+02   .59838986E+02   .51165305E+02   .42200142E+02
   .33193916E+02   .24372978E+02   .15935832E+02   .80504541E+01   .85269586E+00
  -.55542486E+01  -.11099401E+02  -.15742671E+02  -.19472753E+02  -.22304389E+02
  -.24275137E+02  -.25441777E+02  -.25876519E+02  -.25663139E+02  -.24893169E+02
  -.23662271E+02  -.22066874E+02  -.20201171E+02  -.18154528E+02  -.16009350E+02
  -.13839419E+02  -.11708716E+02  -.96707092E+01  -.77680729E+01  -.60328085E+01
  -.44867067E+01  -.31420983E+01  -.20028305E+01  -.10654066E+01  -.32022704E+00
   .24712639E+00   .65461561E+00   .92252746E+00   .10723490E+01   .11257675E+01
   .11038156E+01   .10261760E+01   .91064962E+00   .77278445E+00   .62565820E+00
   .47979930E+00   .34322930E+00   .22160602E+00   .11844568E+00   .35401540E-01
  -.27422356E-01  -.71142450E-01  -.97769691E-01  -.10990130E+00  -.11044224E+00
  -.10236499E+00  -.88513230E-01  -.71451859E-01  -.53363059E-01  -.35985931E-01
 PAW radial sets
 337 0.708915279022619527
(5E20.12)                                
 augmentation charges (non sperical)
  -.121506687787E+00  -.455148147517E-02  -.959423653950E-02   .568235044013E-02  -.455148147517E-02
  -.221294527321E-03   .149257157214E-03   .371551425296E-04  -.959423653950E-02   .149257157214E-03
   .116078371832E+00   .310041503209E-01   .568235044013E-02   .371551425296E-04   .310041503209E-01
   .638391057359E-02
 uccopancies in atom
   .200000000000E+01   .000000000000E+00   .000000000000E+00   .000000000000E+00   .000000000000E+00
   .000000000000E+00   .000000000000E+00   .000000000000E+00   .000000000000E+00   .000000000000E+00
   .999999999728E+00   .000000000000E+00   .000000000000E+00   .000000000000E+00   .000000000000E+00
   .000000000000E+00
 grid
   .280527516333E-04   .289225357721E-04   .298192878340E-04   .307438439676E-04   .316970662468E-04
   .326798434741E-04   .336930920097E-04   .347377566259E-04   .358148113878E-04   .369252605618E-04
   .380701395518E-04   .392505158649E-04   .404674901063E-04   .417221970061E-04   .430158064768E-04
   .443495247045E-04   .457245952736E-04   .471423003259E-04   .486039617567E-04   .501109424469E-04
   .516646475341E-04   .532665257223E-04   .549180706334E-04   .566208221993E-04   .583763680979E-04
   .601863452337E-04   .620524412639E-04   .639763961718E-04   .659600038897E-04   .680051139712E-04
   .701136333158E-04   .722875279473E-04   .745288248462E-04   .768396138405E-04   .792220495539E-04
   .816783534148E-04   .842108157277E-04   .868217978087E-04   .895137341871E-04   .922891348757E-04
   .951505877110E-04   .981007607661E-04   .101142404838E-03   .104278356015E-03   .107511538316E-03
   .110844966423E-03   .114281748487E-03   .117825089030E-03   .121478291928E-03   .125244763500E-03
   .129128015674E-03   .133131669268E-03   .137259457366E-03   .141515228795E-03   .145902951719E-03
   .150426717332E-03   .155090743682E-03   .159899379594E-03   .164857108732E-03   .169968553777E-03
   .175238480738E-03   .180671803396E-03   .186273587883E-03   .192049057411E-03   .198003597136E-03
   .204142759186E-03   .210472267831E-03   .216998024827E-03   .223726114913E-03   .230662811488E-03
   .237814582461E-03   .245188096279E-03   .252790228147E-03   .260628066437E-03   .268708919298E-03
   .277040321473E-03   .285630041319E-03   .294486088053E-03   .303616719224E-03   .313030448405E-03
   .322736053137E-03   .332742583110E-03   .343059368603E-03   .353696029184E-03   .364662482677E-03
   .375968954412E-03   .387625986760E-03   .399644448959E-03   .412035547251E-03   .424810835334E-03
   .437982225128E-03   .451561997889E-03   .465562815655E-03   .479997733055E-03   .494880209481E-03
   .510224121638E-03   .526043776481E-03   .542353924558E-03   .559169773761E-03   .576507003509E-03
   .594381779364E-03   .612810768108E-03   .631811153281E-03   .651400651203E-03   .671597527497E-03
   .692420614113E-03   .713889326894E-03   .736023683677E-03   .758844322957E-03   .782372523134E-03
   .806630222348E-03   .831640038941E-03   .857425292542E-03   .884010025812E-03   .911419026863E-03
   .939677852369E-03   .968812851398E-03   .998851189976E-03   .102982087642E-02   .106175078746E-02
   .109467069516E-02   .112861129465E-02   .116360423281E-02   .119968213770E-02   .123687864907E-02
   .127522844964E-02   .131476729750E-02   .135553205942E-02   .139756074525E-02   .144089254332E-02
   .148556785704E-02   .153162834252E-02   .157911694742E-02   .162807795104E-02   .167855700554E-02
   .173060117855E-02   .178425899706E-02   .183958049263E-02   .189661724807E-02   .195542244556E-02
   .201605091616E-02   .207855919103E-02   .214300555407E-02   .220945009629E-02   .227795477185E-02
   .234858345582E-02   .242140200372E-02   .249647831295E-02   .257388238610E-02   .265368639620E-02
   .273596475402E-02   .282079417747E-02   .290825376313E-02   .299842505997E-02   .309139214544E-02
   .318724170380E-02   .328606310702E-02   .338794849805E-02   .349299287677E-02   .360129418856E-02
   .371295341562E-02   .382807467115E-02   .394676529639E-02   .406913596075E-02   .419530076495E-02
   .432537734748E-02   .445948699420E-02   .459775475151E-02   .474030954290E-02   .488728428917E-02
   .503881603237E-02   .519504606359E-02   .535612005467E-02   .552218819408E-02   .569340532692E-02
   .586993109928E-02   .605193010718E-02   .623957204995E-02   .643303188850E-02   .663249000848E-02
   .683813238844E-02   .705015077324E-02   .726874285286E-02   .749411244673E-02   .772646969374E-02
   .796603124822E-02   .821302048191E-02   .846766769229E-02   .873021031726E-02   .900089315657E-02
   .927996860004E-02   .956769686293E-02   .986434622857E-02   .101701932985E-01   .104855232502E-01
   .108106301035E-01   .111458169942E-01   .114913964569E-01   .118476907164E-01   .122150319883E-01
   .125937627887E-01   .129842362533E-01   .133868164670E-01   .138018788033E-01   .142298102742E-01
   .146710098911E-01   .151258890370E-01   .155948718499E-01   .160783956182E-01   .165769111888E-01
   .170908833870E-01   .176207914503E-01   .181671294750E-01   .187304068773E-01   .193111488675E-01
   .199098969406E-01   .205272093808E-01   .211636617819E-01   .218198475842E-01   .224963786278E-01
   .231938857233E-01   .239130192394E-01   .246544497100E-01   .254188684590E-01   .262069882449E-01
   .270195439257E-01   .278572931437E-01   .287210170323E-01   .296115209441E-01   .305296352018E-01
   .314762158727E-01   .324521455667E-01   .334583342591E-01   .344957201394E-01   .355652704861E-01
   .366679825681E-01   .378048845754E-01   .389770365768E-01   .401855315093E-01   .414314961966E-01
   .427160923999E-01   .440405179010E-01   .454060076197E-01   .468138347644E-01   .482653120201E-01
   .497617927717E-01   .513046723665E-01   .528953894146E-01   .545354271311E-01   .562263147182E-01
   .579696287918E-01   .597669948511E-01   .616200887945E-01   .635306384819E-01   .655004253464E-01
   .675312860547E-01   .696251142200E-01   .717838621675E-01   .740095427550E-01   .763042312493E-01
   .786700672619E-01   .811092567431E-01   .836240740397E-01   .862168640153E-01   .888900442366E-01
   .916461072276E-01   .944876227942E-01   .974172404194E-01   .100437691734E+00   .103551793066E+00
   .106762448061E+00   .110072650395E+00   .113485486565E+00   .117004138763E+00   .120631887848E+00
   .124372116402E+00   .128228311886E+00   .132204069889E+00   .136303097485E+00   .140529216684E+00
   .144886368000E+00   .149378614125E+00   .154010143714E+00   .158785275294E+00   .163708461288E+00
   .168784292168E+00   .174017500736E+00   .179412966535E+00   .184975720401E+00   .190710949150E+00
   .196624000420E+00   .202720387652E+00   .209005795233E+00   .215486083798E+00   .222167295690E+00
   .229055660599E+00   .236157601368E+00   .243479739980E+00   .251028903739E+00   .258812131627E+00
   .266836680875E+00   .275110033725E+00   .283639904409E+00   .292434246341E+00   .301501259532E+00
   .310849398238E+00   .320487378843E+00   .330424187982E+00   .340669090926E+00   .351231640216E+00
   .362121684576E+00   .373349378090E+00   .384925189674E+00   .396859912833E+00   .409164675732E+00
   .421850951565E+00   .434930569259E+00   .448415724497E+00   .462318991095E+00   .476653332723E+00
   .491432114994E+00   .506669117928E+00   .522378548794E+00   .538575055366E+00   .555273739575E+00
   .572490171592E+00   .590240404346E+00   .608540988491E+00   .627408987842E+00   .646861995280E+00
   .666918149159E+00   .687596150219E+00   .708915279023E+00   .730895413931E+00   .753557049641E+00
   .776921316292E+00   .801009999172E+00
 aepotential
   .363639741525E+05   .353486988431E+05   .343218421719E+05   .332873506987E+05   .322493425013E+05
   .312116817821E+05   .301779824554E+05   .291515900552E+05   .281355719873E+05   .271327122522E+05
   .261455097070E+05   .251761801616E+05   .242266612837E+05   .232986206673E+05   .223934661094E+05
   .215123579591E+05   .206562230842E+05   .198257700763E+05   .190215053474E+05   .182437497397E+05
   .174926553864E+05   .167682225150E+05   .160703159665E+05   .153986812261E+05   .147529597911E+05
   .141327037385E+05   .135373894181E+05   .129664301650E+05   .124191880122E+05   .118949843633E+05
   .113931096827E+05   .109128321163E+05   .104534052295E+05   .100140747189E+05   .959408436168E+04
   .919268105970E+04   .880911918884E+04   .844266424842E+04   .809259589992E+04   .775821039989E+04
   .743882261121E+04   .713376751399E+04   .684240134668E+04   .656410242701E+04   .629827164939E+04
   .604433276833E+04   .580173243593E+04   .556994011018E+04   .534844775879E+04   .513676946601E+04
   .493444100413E+04   .474101918523E+04   .455608133122E+04   .437922451875E+04   .421006498213E+04
   .404823730666E+04   .389339377076E+04   .374520359187E+04   .360335219401E+04   .346754051519E+04
   .333748429799E+04   .321291338902E+04   .309357108986E+04   .297921350116E+04   .286960890600E+04
   .276453716092E+04   .266378912080E+04   .256716609088E+04   .247447928324E+04   .238554932784E+04
   .230020577148E+04   .221828663647E+04   .213963796492E+04   .206411341185E+04   .199157384772E+04
   .192188698360E+04   .185492700868E+04   .179057426100E+04   .172871489759E+04   .166924060140E+04
   .161204828066E+04   .155703980758E+04   .150412175443E+04   .145320515704E+04   .140420526364E+04
   .135704135019E+04   .131163647545E+04   .126791731834E+04   .122581396868E+04   .118525976774E+04
   .114619113374E+04   .110854740959E+04   .107227071448E+04   .103730579901E+04   .100359991984E+04
   .971102708549E+03   .939766055312E+03   .909543996388E+03   .880392605856E+03   .852269898434E+03
   .825135730040E+03   .798951711238E+03   .773681119698E+03   .749288819036E+03   .725741183375E+03
   .703006024362E+03   .681052521465E+03   .659851157598E+03   .639373657217E+03   .619592927130E+03
   .600483001830E+03   .582018989710E+03   .564177023819E+03   .546934214176E+03   .530268602534E+03
   .514159120016E+03   .498585546066E+03   .483528470409E+03   .468969255931E+03   .454890004293E+03
   .441273522745E+03   .428103292723E+03   .415363439803E+03   .403038705661E+03   .391114420680E+03
   .379576478711E+03   .368411312191E+03   .357605868845E+03   .347147590092E+03   .337024389275E+03
   .327224631997E+03   .317737116800E+03   .308551056886E+03   .299656062835E+03   .291042125975E+03
   .282699602499E+03   .274619198521E+03   .266791955511E+03   .259209236639E+03   .251862713713E+03
   .244744354458E+03   .237846410836E+03   .231161407375E+03   .224682130329E+03   .218401617250E+03
   .212313147000E+03   .206410230161E+03   .200686599981E+03   .195136203508E+03   .189753193401E+03
   .184531919758E+03   .179466922520E+03   .174552924136E+03   .169784822509E+03   .165157684250E+03
   .160666738222E+03   .156307369361E+03   .152075112703E+03   .147965647713E+03   .143974792800E+03
   .140098500097E+03   .136332850405E+03   .132674048320E+03   .129118417754E+03   .125662397229E+03
   .122302535831E+03   .119035488956E+03   .115858014436E+03   .112766968678E+03   .109759303081E+03
   .106832060482E+03   .103982371805E+03   .101207452823E+03   .985046010377E+02   .958711926753E+02
   .933046798103E+02   .908025876049E+02   .883625116361E+02   .859821153174E+02   .836591274767E+02
   .813913399403E+02   .791766052946E+02   .770128346760E+02   .748979956694E+02   .728301103007E+02
   .708072530777E+02   .688275491452E+02   .668891724779E+02   .649903441822E+02   .631293308353E+02
   .613044429175E+02   .595140333034E+02   .577564958085E+02   .560302638159E+02   .543338089527E+02
   .526656398285E+02   .510243008416E+02   .494083710310E+02   .478164629940E+02   .462472218524E+02
   .446993242848E+02   .431714775948E+02   .416624188544E+02   .401709140744E+02   .386957574524E+02
   .372357706445E+02   .357898021135E+02   .343567265021E+02   .329354440718E+02   .315248801825E+02
   .301239848158E+02   .287317321592E+02   .273471202133E+02   .259691704701E+02   .245969276151E+02
   .232294592857E+02   .218658558680E+02   .205052303380E+02   .191467181433E+02   .177894771268E+02
   .164326874903E+02   .150755517980E+02   .137172950157E+02   .123571645916E+02   .109944305686E+02
   .962838573530E+01   .825834580743E+01   .688364964536E+01   .550365950006E+01   .411776129127E+01
   .272536491297E+01   .132590456771E+01  -.811608726201E-01  -.149634748076E+01  -.292014586199E+01
  -.435302071851E+01  -.579541038874E+01  -.724772636160E+01  -.871035276612E+01  -.101836458321E+02
  -.116679333222E+02  -.131635139298E+02  -.146706566387E+02  -.161896000369E+02  -.177205515777E+02
  -.192636867748E+02  -.208191483196E+02  -.223870451014E+02  -.239674511108E+02  -.255604041983E+02
  -.271659046567E+02  -.287839135878E+02  -.304143510061E+02  -.320570936226E+02  -.337119722409E+02
  -.353787686852E+02  -.370572121637E+02  -.387469749575E+02  -.404476673028E+02  -.421588313190E+02
  -.438799338088E+02  -.456103577416E+02  -.473493922075E+02  -.490962206156E+02  -.508499069039E+02
  -.526093795307E+02  -.543734130444E+02  -.561406070829E+02  -.579093627492E+02  -.596778564634E+02
  -.614440116193E+02  -.632054686969E+02  -.649595549163E+02  -.667032550900E+02  -.684331860342E+02
  -.701455777437E+02  -.718362654769E+02  -.735006978979E+02  -.751339673772E+02  -.767308693647E+02
  -.782859982940E+02  -.797938876916E+02  -.812492020575E+02  -.826469878511E+02  -.839829910573E+02
  -.852540490827E+02  -.864585671912E+02  -.875970892780E+02  -.886729693113E+02  -.896931274595E+02
  -.906688133867E+02  -.916161615546E+02  -.925560698026E+02  -.935125585017E+02  -.945084003335E+02
  -.955568564711E+02  -.966495565018E+02  -.977435752368E+02  -.987548956466E+02  -.995673584555E+02
  -.100061379620E+03  -.100154992533E+03  -.998385173631E+02  -.991826926026E+02  -.983122581877E+02
  -.973581436293E+02  -.964160582281E+02  -.955317704410E+02  -.947111132488E+02  -.939390886823E+02
  -.931953467187E+02  -.924622718412E+02  -.917274076175E+02  -.909830054766E+02  -.902246341771E+02
  -.894498046272E+02  -.886569511579E+02  -.878448120816E+02  -.870121334636E+02  -.861575898467E+02
  -.852798259845E+02  -.843775489340E+02  -.834496263823E+02  -.824951684779E+02  -.815135848938E+02
  -.805046170962E+02  -.794683496812E+02  -.784052057147E+02  -.773159306962E+02  -.762015689104E+02
  -.750634350168E+02  -.739030826194E+02  -.727222713575E+02  -.715229330450E+02  -.703071374144E+02
  -.690770577969E+02  -.678349366580E+02
 core charge-density
   .378166384757E-05   .401938221399E-05   .427204066085E-05   .454057784405E-05   .482599136570E-05
   .512934147321E-05   .545175499020E-05   .579442949387E-05   .615863775415E-05   .654573245093E-05
   .695715118702E-05   .739442181501E-05   .785916809796E-05   .835311572453E-05   .887809870087E-05
   .943606614281E-05   .100290894932E-04   .106593701912E-04   .113292478214E-04   .120412087736E-04
   .127978954431E-04   .136021160083E-04   .144568548188E-04   .153652834335E-04   .163307723491E-04
   .173569034617E-04   .184474833077E-04   .196065571320E-04   .208384238353E-04   .221476518555E-04
   .235390960405E-04   .250179155760E-04   .265895930308E-04   .282599545926E-04   .300351915660E-04
   .319218832115E-04   .339270210099E-04   .360580344392E-04   .383228183591E-04   .407297621019E-04
   .432877803764E-04   .460063460970E-04   .488955252567E-04   .519660139717E-04   .552291778313E-04
   .586970936959E-04   .623825940948E-04   .662993143841E-04   .704617428360E-04   .748852738393E-04
   .795862644046E-04   .845820941769E-04   .898912291720E-04   .955332894673E-04   .101529121088E-03
   .107900872352E-03   .114672074936E-03   .121867729970E-03   .129514399458E-03   .137640303344E-03
   .146275422593E-03   .155451608631E-03   .165202699543E-03   .175564643455E-03   .186575629507E-03
   .198276226915E-03   .210709532591E-03   .223921327859E-03   .237960244800E-03   .252877942839E-03
   .268729296164E-03   .285572592666E-03   .303469745067E-03   .322486515002E-03   .342692750813E-03
   .364162639902E-03   .386974976500E-03   .411213445807E-03   .436966925455E-03   .464329805358E-03
   .493402327040E-03   .524290943604E-03   .557108701578E-03   .591975645945E-03   .629019249726E-03
   .668374869583E-03   .710186228981E-03   .754605930542E-03   .801795999301E-03   .851928458704E-03
   .905185941259E-03   .961762335868E-03   .102186347400E-02   .108570785696E-02   .115352742663E-02
   .122556838226E-02   .130209204591E-02   .138337577935E-02   .146971395547E-02   .156141898719E-02
   .165882241729E-02   .176227607249E-02   .187215328560E-02   .198885018939E-02   .211278708638E-02
   .224440989875E-02   .238419170285E-02   .253263435297E-02   .269027019941E-02   .285766390598E-02
   .303541437236E-02   .322415676715E-02   .342456467750E-02   .363735238163E-02   .386327725094E-02
   .410314228842E-02   .435779881085E-02   .462814928203E-02   .491515030523E-02   .521981578291E-02
   .554322025240E-02   .588650240652E-02   .625086880843E-02   .663759781052E-02   .704804368736E-02
   .748364099335E-02   .794590915589E-02   .843645731536E-02   .895698942371E-02   .950930961369E-02
   .100953278512E-01   .107170658839E-01   .113766634985E-01   .120763851020E-01   .128186266388E-01
   .136059228594E-01   .144409549552E-01   .153265585731E-01   .162657322265E-01   .172616461172E-01
   .183176513830E-01   .194372897880E-01   .206243038695E-01   .218826475581E-01   .232164972855E-01
   .246302635953E-01   .261286032715E-01   .277164319986E-01   .293989375669E-01   .311815936358E-01
   .330701740666E-01   .350707678356E-01   .371897945364E-01   .394340204794E-01   .418105753938E-01
   .443269697359E-01   .469911126043E-01   .498113302613E-01   .527963852542E-01   .559554961287E-01
   .592983577222E-01   .628351620189E-01   .665766195451E-01   .705339812770E-01   .747190610268E-01
   .791442582658E-01   .838225813376E-01   .887676710020E-01   .939938242464E-01   .995160182871E-01
   .105349934674E+00   .111511983402E+00   .118019326912E+00   .124889903864E+00   .132142452534E+00
   .139796533688E+00   .147872552742E+00   .156391781033E+00   .165376375983E+00   .174849399906E+00
   .184834837227E+00   .195357609811E+00   .206443590098E+00   .218119611727E+00   .230413477255E+00
   .243353962607E+00   .256970817822E+00   .271294763636E+00   .286357483419E+00   .302191609933E+00
   .318830706372E+00   .336309241058E+00   .354662555192E+00   .373926822969E+00   .394139003372E+00
   .415336782889E+00   .437558508392E+00   .460843109360E+00   .485230008624E+00   .510759020751E+00
   .537470237197E+00   .565403897303E+00   .594600244233E+00   .625099364900E+00   .656941012977E+00
   .690164414050E+00   .724808052028E+00   .760909435932E+00   .798504846243E+00   .837629060032E+00
   .878315054192E+00   .920593686163E+00   .964493351671E+00   .101003961913E+01   .105725484051E+01
   .110615773869E+01   .115676297144E+01   .120908067261E+01   .126311597105E+01   .131886848851E+01
   .137633181772E+01   .143549298248E+01   .149633188186E+01   .155882072117E+01   .162292343267E+01
   .168859508975E+01   .175578131859E+01   .182441771210E+01   .189442925138E+01   .196572974067E+01
   .203822126243E+01   .211179365968E+01   .218632405344E+01   .226167640400E+01   .233770112491E+01
   .241423475950E+01   .249109973027E+01   .256810417178E+01   .264504185819E+01   .272169223696E+01
   .279782058021E+01   .287317826544E+01   .294750319715E+01   .302052038044E+01   .309194265750E+01
   .316147161666E+01   .322879868312E+01   .329360639899E+01   .335556989863E+01   .341435858370E+01
   .346963799983E+01   .352107191457E+01   .356832459326E+01   .361106326663E+01   .364896078013E+01
   .368169841153E+01   .370896883948E+01   .373047924128E+01   .374595449408E+01   .375514044920E+01
   .375780724509E+01   .375375261983E+01   .374280518040E+01   .372482758171E+01   .369971956525E+01
   .366742080426E+01   .362791350021E+01   .358122467382E+01   .352742809355E+01   .346664578522E+01
   .339904906800E+01   .332485906545E+01   .324434664489E+01   .315783174432E+01   .306568205413E+01
   .296831102995E+01   .286617522395E+01   .275977093447E+01   .264963018743E+01   .253631607809E+01
   .242041751766E+01   .230254344544E+01   .218331658354E+01   .206336682733E+01   .194332437785E+01
   .182381274100E+01   .170544171472E+01   .158880050993E+01   .147445114069E+01   .136292222279E+01
   .125470331188E+01   .115023989871E+01   .104992915545E+01   .954116492060E+00   .863092930985E+00
   .777093246588E+00   .696294757090E+00   .620816638218E+00   .550719698696E+00   .486006745643E+00
   .426623916802E+00   .372463504183E+00   .323368663209E+00   .279139964416E+00   .239543195086E+00
   .204317468497E+00   .173182769327E+00   .145846494262E+00   .122009020820E+00   .101368570213E+00
   .836255977702E-01   .684868026748E-01   .556687339940E-01   .449009229172E-01   .359284740988E-01
   .285140746905E-01   .224394102278E-01   .175060040292E-01   .135355187265E-01   .103695748506E-01
   .786915260934E-02   .591364975020E-02   .439967123087E-02   .323962578827E-02   .236020085325E-02
   .170078111056E-02   .121186792537E-02   .853547471704E-03   .594045345389E-03   .408395332007E-03
   .277240368983E-03   .185775024687E-03   .122831330663E-03   .801037312383E-04   .515043216509E-04
   .326363884425E-04   .203724167859E-04
 kinetic energy-density
   .532955807213E-01   .540205706616E-01   .547722478392E-01   .555517135887E-01   .563601491850E-01
   .571988017377E-01   .580689880635E-01   .589720973273E-01   .599095940565E-01   .608830213004E-01
   .618940040930E-01   .629442529804E-01   .640355679050E-01   .651698423542E-01   .663490677411E-01
   .675753381164E-01   .688508552289E-01   .701779339175E-01   .715590078974E-01   .729966359175E-01
   .744935083777E-01   .760524543607E-01   .776764491609E-01   .793686222735E-01   .811322659457E-01
   .829708442599E-01   .848880027939E-01   .868875788931E-01   .889736126049E-01   .911503582530E-01
   .934222967647E-01   .957941487592E-01   .982708883705E-01   .100857758005E+00   .103560283916E+00
   .106384292764E+00   .109335929155E+00   .112421674248E+00   .115648365476E+00   .119023217450E+00
   .122553844137E+00   .126248282351E+00   .130115016669E+00   .134163005840E+00   .138401710779E+00
   .142841124290E+00   .147491802475E+00   .152364898191E+00   .157472196329E+00   .162826151454E+00
   .168439927448E+00   .174327439850E+00   .180503400465E+00   .186983364828E+00   .193783782582E+00
   .200922050681E+00   .208416570161E+00   .216286805914E+00   .224553350521E+00   .233237991550E+00
   .242363783296E+00   .251955122523E+00   .262037829078E+00   .272639231179E+00   .283788255980E+00
   .295515525606E+00   .307853458954E+00   .320836379704E+00   .334500630828E+00   .348884696090E+00
   .364029328800E+00   .379977688433E+00   .396775485459E+00   .414471134974E+00   .433115919557E+00
   .452764161922E+00   .473473408160E+00   .495304621791E+00   .518322389680E+00   .542595140329E+00
   .568195375209E+00   .595199914122E+00   .623690155173E+00   .653752350630E+00   .685477898834E+00
   .718963654119E+00   .754312254945E+00   .791632471980E+00   .831039576244E+00   .872655730526E+00
   .916610402562E+00   .963040804090E+00   .101209235531E+01   .106391917711E+01   .111868461243E+01
   .117656177861E+01   .123773415216E+01   .130239618820E+01   .137075397625E+01   .144302593472E+01
   .151944354598E+01   .160025213461E+01   .168571169098E+01   .177609774301E+01   .187170227860E+01
   .197283472144E+01   .207982296365E+01   .219301445770E+01   .231277737157E+01   .243950180997E+01
   .257360110572E+01   .271551318482E+01   .286570200926E+01   .302465910161E+01   .319290515605E+01
   .337099173998E+01   .355950309131E+01   .375905801630E+01   .397031189301E+01   .419395878612E+01
   .443073367828E+01   .468141482455E+01   .494682623529E+01   .522784029453E+01   .552538052014E+01
   .584042447259E+01   .617400681977E+01   .652722256462E+01   .690123044424E+01   .729725650680E+01
   .771659787607E+01   .816062671058E+01   .863079436651E+01   .912863577327E+01   .965577403014E+01
   .102139252338E+02   .108049035457E+02   .114306265083E+02   .120931206211E+02   .127945271843E+02
   .135371084210E+02   .143232538877E+02   .151554871811E+02   .160364729531E+02   .169690242410E+02
   .179561101239E+02   .190008637122E+02   .201065904795E+02   .212767769455E+02   .225150997148E+02
   .238254348796E+02   .252118677913E+02   .266787032057E+02   .282304758039E+02   .298719610918E+02
   .316081866777E+02   .334444439258E+02   .353862999836E+02   .374396101739E+02   .396105307455E+02
   .419055319696E+02   .443314115657E+02   .468953084409E+02   .496047167162E+02   .524675000169E+02
   .554919059887E+02   .586865810095E+02   .620605850458E+02   .656234066089E+02   .693849777495E+02
   .733556890302E+02   .775464043971E+02   .819684758736E+02   .866337579780E+02   .915546217685E+02
   .967439683954E+02   .102215242038E+03   .107982442083E+03   .114060134397E+03   .120463461516E+03
   .127208151572E+03   .134310525764E+03   .141787504137E+03   .149656609450E+03   .157935968866E+03
   .166644313191E+03   .175800973371E+03   .185425873917E+03   .195539522925E+03   .206162998326E+03
   .217317929985E+03   .229026477228E+03   .241311301375E+03   .254195532823E+03   .267702732198E+03
   .281856845083E+03   .296682149797E+03   .312203197701E+03   .328444745462E+03   .345431678732E+03
   .363188926639E+03   .381741366540E+03   .401113718424E+03   .421330428409E+03   .442415540748E+03
   .464392557808E+03   .487284287484E+03   .511112677568E+03   .535898636616E+03   .561661840940E+03
   .588420527387E+03   .616191271692E+03   .644988752230E+03   .674825499185E+03   .705711629200E+03
   .737654565797E+03   .770658745967E+03   .804725313553E+03   .839851800254E+03   .876031795293E+03
   .913254605067E+03   .951504904362E+03   .990762381008E+03   .103100137618E+04   .107219052287E+04
   .111429238545E+04   .115726310350E+04   .120105204370E+04   .124560146359E+04   .129084619189E+04
   .133671332989E+04   .138312197938E+04   .142998300250E+04   .147719881949E+04   .152466325047E+04
   .157226140789E+04   .161986964607E+04   .166735557495E+04   .171457814473E+04   .176138780835E+04
   .180762676863E+04   .185312931642E+04   .189772226607E+04   .194122549371E+04   .198345258349E+04
   .202421158569E+04   .206330589018E+04   .210053521700E+04   .213569672495E+04   .216858623732E+04
   .219899958226E+04   .222673404372E+04   .225158991653E+04   .227337215748E+04   .229189212179E+04
   .230696937243E+04   .231843354711E+04   .232612626573E+04   .232990305882E+04   .232963529517E+04
   .232521208521E+04   .231654213438E+04   .230355551986E+04   .228620536203E+04   .226446936184E+04
   .223835117417E+04   .220788158781E+04   .217311948251E+04   .213415253506E+04   .209109764743E+04
   .204410107233E+04   .199333821376E+04   .193901308358E+04   .188135739848E+04   .182062930602E+04
   .175711173286E+04   .169111035384E+04   .162295118589E+04   .155297781738E+04   .148154829067E+04
   .140903166324E+04   .133580428167E+04   .126224581224E+04   .118873507723E+04   .111564580054E+04
   .104334219459E+04   .972174747616E+03   .902475983529E+03   .834556504451E+03   .768701335191E+03
   .705166689134E+03   .644177277570E+03   .585924312584E+03   .530564394027E+03   .478219504178E+03
   .428978305256E+03   .382898750697E+03   .340011596025E+03   .300323789355E+03   .263820298345E+03
   .230463266369E+03   .200188731532E+03   .172902844909E+03   .148480362653E+03   .126767390522E+03
   .107588271142E+03   .907544509077E+02   .760726014073E+02   .633504173410E+02   .524001100015E+02
   .430404409556E+02   .350980932873E+02   .284087987970E+02   .228183342126E+02   .181833598131E+02
   .143720450906E+02   .112644434187E+02   .875260471254E+01   .674043770626E+01   .514334865856E+01
   .388769191001E+01   .291007156436E+01   .215653420246E+01   .158169104272E+01   .114780500860E+01
   .823874180193E+00   .584738414580E+00   .410230804412E+00   .284390384711E+00   .194747360857E+00
   .131687353469E+00   .878969294607E-01   .578891464484E-01   .376050503557E-01   .240850449435E-01
   .152027566505E-01   .945336870830E-02
 pspotential
  -.106455265800E+03  -.106454371816E+03  -.106453504716E+03  -.106452663691E+03  -.106451847958E+03
  -.106451056756E+03  -.106450289347E+03  -.106449545015E+03  -.106448823067E+03  -.106448122828E+03
  -.106447443648E+03  -.106446784891E+03  -.106446145944E+03  -.106445526212E+03  -.106444925115E+03
  -.106444342094E+03  -.106443776604E+03  -.106443228120E+03  -.106442696128E+03  -.106442180134E+03
  -.106441679655E+03  -.106441194226E+03  -.106440723392E+03  -.106440266717E+03  -.106439823773E+03
  -.106439394147E+03  -.106438977440E+03  -.106438573262E+03  -.106438181236E+03  -.106437800996E+03
  -.106437432189E+03  -.106437074469E+03  -.106436727505E+03  -.106436390970E+03  -.106436064553E+03
  -.106435747949E+03  -.106435440861E+03  -.106435143004E+03  -.106434854100E+03  -.106434573879E+03
  -.106434302080E+03  -.106434038449E+03  -.106433782740E+03  -.106433534715E+03  -.106433294142E+03
  -.106433060796E+03  -.106432834460E+03  -.106432614923E+03  -.106432401979E+03  -.106432195430E+03
  -.106431995083E+03  -.106431800751E+03  -.106431612252E+03  -.106431429410E+03  -.106431252054E+03
  -.106431080018E+03  -.106430913143E+03  -.106430751270E+03  -.106430594250E+03  -.106430441936E+03
  -.106430294184E+03  -.106430150856E+03  -.106430011819E+03  -.106429876941E+03  -.106429746096E+03
  -.106429619163E+03  -.106429496021E+03  -.106429376554E+03  -.106429260652E+03  -.106429148204E+03
  -.106429039105E+03  -.106428933252E+03  -.106428830545E+03  -.106428730887E+03  -.106428634184E+03
  -.106428540345E+03  -.106428449281E+03  -.106428360904E+03  -.106428275132E+03  -.106428191883E+03
  -.106428111076E+03  -.106428032635E+03  -.106427956485E+03  -.106427882552E+03  -.106427810766E+03
  -.106427741056E+03  -.106427673355E+03  -.106427607597E+03  -.106427543719E+03  -.106427481656E+03
  -.106427421349E+03  -.106427362736E+03  -.106427305761E+03  -.106427250365E+03  -.106427196493E+03
  -.106427144089E+03  -.106427093101E+03  -.106427043476E+03  -.106426995161E+03  -.106426948106E+03
  -.106426902261E+03  -.106426857576E+03  -.106426814004E+03  -.106426771495E+03  -.106426730003E+03
  -.106426689480E+03  -.106426649880E+03  -.106426611156E+03  -.106426573262E+03  -.106426536152E+03
  -.106426499781E+03  -.106426464101E+03  -.106426429068E+03  -.106426394634E+03  -.106426360753E+03
  -.106426327378E+03  -.106426294462E+03  -.106426261956E+03  -.106426229812E+03  -.106426197980E+03
  -.106426166409E+03  -.106426135048E+03  -.106426103843E+03  -.106426072741E+03  -.106426041686E+03
  -.106426010620E+03  -.106425979485E+03  -.106425948218E+03  -.106425916758E+03  -.106425885038E+03
  -.106425852990E+03  -.106425820543E+03  -.106425787624E+03  -.106425754155E+03  -.106425720057E+03
  -.106425685244E+03  -.106425649630E+03  -.106425613121E+03  -.106425575620E+03  -.106425537027E+03
  -.106425497234E+03  -.106425456128E+03  -.106425413592E+03  -.106425369499E+03  -.106425323719E+03
  -.106425276112E+03  -.106425226531E+03  -.106425174822E+03  -.106425120820E+03  -.106425064352E+03
  -.106425005235E+03  -.106424943275E+03  -.106424878266E+03  -.106424809991E+03  -.106424738219E+03
  -.106424662705E+03  -.106424583191E+03  -.106424499402E+03  -.106424411047E+03  -.106424317818E+03
  -.106424219385E+03  -.106424115403E+03  -.106424005501E+03  -.106423889288E+03  -.106423766348E+03
  -.106423636241E+03  -.106423498497E+03  -.106423352619E+03  -.106423198079E+03  -.106423034316E+03
  -.106422860732E+03  -.106422676697E+03  -.106422481536E+03  -.106422274535E+03  -.106422054937E+03
  -.106421821933E+03  -.106421574669E+03  -.106421312233E+03  -.106421033658E+03  -.106420737917E+03
  -.106420423919E+03  -.106420090501E+03  -.106419736432E+03  -.106419360401E+03  -.106418961016E+03
  -.106418536797E+03  -.106418086171E+03  -.106417607468E+03  -.106417098910E+03  -.106416558610E+03
  -.106415984562E+03  -.106415374635E+03  -.106414726561E+03  -.106414037933E+03  -.106413306191E+03
  -.106412528615E+03  -.106411702313E+03  -.106410824214E+03  -.106409891051E+03  -.106408899354E+03
  -.106407845433E+03  -.106406725368E+03  -.106405534993E+03  -.106404269878E+03  -.106402925319E+03
  -.106401496312E+03  -.106399977541E+03  -.106398363358E+03  -.106396647757E+03  -.106394824358E+03
  -.106392886378E+03  -.106390826612E+03  -.106388637400E+03  -.106386310602E+03  -.106383837569E+03
  -.106381209110E+03  -.106378415456E+03  -.106375446228E+03  -.106372290396E+03  -.106368936240E+03
  -.106365371305E+03  -.106361582359E+03  -.106357555341E+03  -.106353275312E+03  -.106348726398E+03
  -.106343891735E+03  -.106338753406E+03  -.106333292377E+03  -.106327488425E+03  -.106321320069E+03
  -.106314764489E+03  -.106307797447E+03  -.106300393197E+03  -.106292524392E+03  -.106284161990E+03
  -.106275275145E+03  -.106265831104E+03  -.106255795084E+03  -.106245130152E+03  -.106233797096E+03
  -.106221754286E+03  -.106208957525E+03  -.106195359903E+03  -.106180911627E+03  -.106165559852E+03
  -.106149248500E+03  -.106131918067E+03  -.106113505422E+03  -.106093943594E+03  -.106073161548E+03
  -.106051083944E+03  -.106027630896E+03  -.106002717701E+03  -.105976254569E+03  -.105948146332E+03
  -.105918292138E+03  -.105886585131E+03  -.105852912117E+03  -.105817153212E+03  -.105779181469E+03
  -.105738862498E+03  -.105696054053E+03  -.105650605611E+03  -.105602357929E+03  -.105551142575E+03
  -.105496781442E+03  -.105439086237E+03  -.105377857946E+03  -.105312886269E+03  -.105243949031E+03
  -.105170811563E+03  -.105093226043E+03  -.105010930807E+03  -.104923649617E+03  -.104831090880E+03
  -.104732946827E+03  -.104628892621E+03  -.104518585419E+03  -.104401663349E+03  -.104277744424E+03
  -.104146425359E+03  -.104007280303E+03  -.103859859475E+03  -.103703687686E+03  -.103538262773E+03
  -.103363053917E+03  -.103177499884E+03  -.102981007186E+03  -.102772948213E+03  -.102552659371E+03
  -.102319439311E+03  -.102072547329E+03  -.101811202079E+03  -.101534580754E+03  -.101241818940E+03
  -.100932011391E+03  -.100604214002E+03  -.100257447322E+03  -.998907019350E+02  -.995029460926E+02
  -.990931359308E+02  -.986602285648E+02  -.982031982611E+02  -.977210557282E+02  -.972128703619E+02
  -.966777950135E+02  -.961150925380E+02  -.955241630360E+02  -.949045703672E+02  -.942560662127E+02
  -.935786097511E+02  -.928723809220E+02  -.921377853161E+02  -.913754489634E+02  -.905862016826E+02
  -.897710481657E+02  -.889311265601E+02  -.880676549190E+02  -.871818664833E+02  -.862749353370E+02
  -.853478945798E+02  -.844015498812E+02  -.834363922279E+02  -.824525149645E+02  -.814495419356E+02
  -.804265756856E+02  -.793821773395E+02  -.783143932711E+02  -.772084941674E+02  -.761164814644E+02
  -.750111727854E+02  -.738685641877E+02  -.726911930086E+02  -.715228356567E+02  -.703252371373E+02
  -.690945353045E+02  -.678379967399E+02
 core charge-density (pseudized)
   .000000000000E+00   .000000000000E+00   .000000000000E+00   .000000000000E+00   .000000000000E+00
   .000000000000E+00   .000000000000E+00   .000000000000E+00   .000000000000E+00   .000000000000E+00
   .000000000000E+00   .000000000000E+00   .000000000000E+00   .000000000000E+00   .000000000000E+00
   .000000000000E+00   .000000000000E+00   .000000000000E+00   .000000000000E+00   .000000000000E+00
   .000000000000E+00   .000000000000E+00   .000000000000E+00   .000000000000E+00   .000000000000E+00
   .000000000000E+00   .000000000000E+00   .000000000000E+00   .000000000000E+00   .000000000000E+00
   .000000000000E+00   .000000000000E+00   .000000000000E+00   .000000000000E+00   .000000000000E+00
   .000000000000E+00   .000000000000E+00   .000000000000E+00   .000000000000E+00   .000000000000E+00
   .000000000000E+00   .000000000000E+00   .000000000000E+00   .000000000000E+00   .000000000000E+00
   .000000000000E+00   .000000000000E+00   .000000000000E+00   .000000000000E+00   .000000000000E+00
   .000000000000E+00   .000000000000E+00   .000000000000E+00   .000000000000E+00   .000000000000E+00
   .000000000000E+00   .000000000000E+00   .000000000000E+00   .000000000000E+00   .000000000000E+00
   .000000000000E+00   .000000000000E+00   .000000000000E+00   .000000000000E+00   .000000000000E+00
   .000000000000E+00   .000000000000E+00   .000000000000E+00   .000000000000E+00   .000000000000E+00
   .000000000000E+00   .000000000000E+00   .000000000000E+00   .000000000000E+00   .000000000000E+00
   .000000000000E+00   .000000000000E+00   .000000000000E+00   .000000000000E+00   .000000000000E+00
   .000000000000E+00   .000000000000E+00   .000000000000E+00   .000000000000E+00   .000000000000E+00
   .000000000000E+00   .000000000000E+00   .000000000000E+00   .000000000000E+00   .000000000000E+00
   .000000000000E+00   .000000000000E+00   .000000000000E+00   .000000000000E+00   .000000000000E+00
   .000000000000E+00   .000000000000E+00   .000000000000E+00   .000000000000E+00   .000000000000E+00
   .000000000000E+00   .000000000000E+00   .000000000000E+00   .000000000000E+00   .000000000000E+00
   .000000000000E+00   .000000000000E+00   .000000000000E+00   .000000000000E+00   .000000000000E+00
   .000000000000E+00   .000000000000E+00   .000000000000E+00   .000000000000E+00   .000000000000E+00
   .000000000000E+00   .000000000000E+00   .000000000000E+00   .000000000000E+00   .000000000000E+00
   .000000000000E+00   .000000000000E+00   .000000000000E+00   .000000000000E+00   .000000000000E+00
   .000000000000E+00   .000000000000E+00   .000000000000E+00   .000000000000E+00   .000000000000E+00
   .000000000000E+00   .000000000000E+00   .000000000000E+00   .000000000000E+00   .000000000000E+00
   .000000000000E+00   .000000000000E+00   .000000000000E+00   .000000000000E+00   .000000000000E+00
   .000000000000E+00   .000000000000E+00   .000000000000E+00   .000000000000E+00   .000000000000E+00
   .000000000000E+00   .000000000000E+00   .000000000000E+00   .000000000000E+00   .000000000000E+00
   .000000000000E+00   .000000000000E+00   .000000000000E+00   .000000000000E+00   .000000000000E+00
   .000000000000E+00   .000000000000E+00   .000000000000E+00   .000000000000E+00   .000000000000E+00
   .000000000000E+00   .000000000000E+00   .000000000000E+00   .000000000000E+00   .000000000000E+00
   .000000000000E+00   .000000000000E+00   .000000000000E+00   .000000000000E+00   .000000000000E+00
   .000000000000E+00   .000000000000E+00   .000000000000E+00   .000000000000E+00   .000000000000E+00
   .000000000000E+00   .000000000000E+00   .000000000000E+00   .000000000000E+00   .000000000000E+00
   .000000000000E+00   .000000000000E+00   .000000000000E+00   .000000000000E+00   .000000000000E+00
   .000000000000E+00   .000000000000E+00   .000000000000E+00   .000000000000E+00   .000000000000E+00
   .000000000000E+00   .000000000000E+00   .000000000000E+00   .000000000000E+00   .000000000000E+00
   .000000000000E+00   .000000000000E+00   .000000000000E+00   .000000000000E+00   .000000000000E+00
   .000000000000E+00   .000000000000E+00   .000000000000E+00   .000000000000E+00   .000000000000E+00
   .000000000000E+00   .000000000000E+00   .000000000000E+00   .000000000000E+00   .000000000000E+00
   .000000000000E+00   .000000000000E+00   .000000000000E+00   .000000000000E+00   .000000000000E+00
   .000000000000E+00   .000000000000E+00   .000000000000E+00   .000000000000E+00   .000000000000E+00
   .000000000000E+00   .000000000000E+00   .000000000000E+00   .000000000000E+00   .000000000000E+00
   .000000000000E+00   .000000000000E+00   .000000000000E+00   .000000000000E+00   .000000000000E+00
   .000000000000E+00   .000000000000E+00   .000000000000E+00   .000000000000E+00   .000000000000E+00
   .000000000000E+00   .000000000000E+00   .000000000000E+00   .000000000000E+00   .000000000000E+00
   .000000000000E+00   .000000000000E+00   .000000000000E+00   .000000000000E+00   .000000000000E+00
   .000000000000E+00   .000000000000E+00   .000000000000E+00   .000000000000E+00   .000000000000E+00
   .000000000000E+00   .000000000000E+00   .000000000000E+00   .000000000000E+00   .000000000000E+00
   .000000000000E+00   .000000000000E+00   .000000000000E+00   .000000000000E+00   .000000000000E+00
   .000000000000E+00   .000000000000E+00   .000000000000E+00   .000000000000E+00   .000000000000E+00
   .000000000000E+00   .000000000000E+00   .000000000000E+00   .000000000000E+00   .000000000000E+00
   .000000000000E+00   .000000000000E+00   .000000000000E+00   .000000000000E+00   .000000000000E+00
   .000000000000E+00   .000000000000E+00   .000000000000E+00   .000000000000E+00   .000000000000E+00
   .000000000000E+00   .000000000000E+00   .000000000000E+00   .000000000000E+00   .000000000000E+00
   .000000000000E+00   .000000000000E+00   .000000000000E+00   .000000000000E+00   .000000000000E+00
   .000000000000E+00   .000000000000E+00   .000000000000E+00   .000000000000E+00   .000000000000E+00
   .000000000000E+00   .000000000000E+00   .000000000000E+00   .000000000000E+00   .000000000000E+00
   .000000000000E+00   .000000000000E+00   .000000000000E+00   .000000000000E+00   .000000000000E+00
   .000000000000E+00   .000000000000E+00   .000000000000E+00   .000000000000E+00   .000000000000E+00
   .000000000000E+00   .000000000000E+00   .000000000000E+00   .000000000000E+00   .000000000000E+00
   .000000000000E+00   .000000000000E+00   .000000000000E+00   .000000000000E+00   .000000000000E+00
   .000000000000E+00   .000000000000E+00   .000000000000E+00   .000000000000E+00   .000000000000E+00
   .000000000000E+00   .000000000000E+00   .000000000000E+00   .000000000000E+00   .000000000000E+00
   .000000000000E+00   .000000000000E+00   .000000000000E+00   .000000000000E+00   .000000000000E+00
   .000000000000E+00   .000000000000E+00
 pseudo wavefunction
   .121052324510E-03   .124805588816E-03   .128675224228E-03   .132664838866E-03   .136778152724E-03
   .141019001134E-03   .145391338342E-03   .149899241200E-03   .154546912961E-03   .159338687203E-03
   .164279031867E-03   .169372553424E-03   .174624001169E-03   .180038271653E-03   .185620413244E-03
   .191375630836E-03   .197309290704E-03   .203426925503E-03   .209734239432E-03   .216237113551E-03
   .222941611262E-03   .229853983965E-03   .236980676887E-03   .244328335092E-03   .251903809673E-03
   .259714164147E-03   .267766681036E-03   .276068868657E-03   .284628468127E-03   .293453460577E-03
   .302552074596E-03   .311932793903E-03   .321604365255E-03   .331575806608E-03   .341856415520E-03
   .352455777823E-03   .363383776561E-03   .374650601203E-03   .386266757146E-03   .398243075510E-03
   .410590723238E-03   .423321213505E-03   .436446416455E-03   .449978570271E-03   .463930292582E-03
   .478314592231E-03   .493144881404E-03   .508434988134E-03   .524199169195E-03   .540452123399E-03
   .557209005294E-03   .574485439302E-03   .592297534281E-03   .610661898551E-03   .629595655373E-03
   .649116458921E-03   .669242510741E-03   .689992576719E-03   .711386004584E-03   .733442741942E-03
   .756183354882E-03   .779629047145E-03   .803801679901E-03   .828723792125E-03   .854418621621E-03
   .880910126681E-03   .908223008428E-03   .936382733849E-03   .965415559534E-03   .995348556165E-03
   .102620963375E-02   .105802756765E-02   .109083202541E-02   .112465359441E-02   .115952381041E-02
   .119547518692E-02   .123254124554E-02   .127075654720E-02   .131015672439E-02   .135077851440E-02
   .139265979354E-02   .143583961247E-02   .148035823261E-02   .152625716370E-02   .157357920245E-02
   .162236847248E-02   .167267046548E-02   .172453208356E-02   .177800168303E-02   .183312911947E-02
   .188996579420E-02   .194856470224E-02   .200898048166E-02   .207126946458E-02   .213548972965E-02
   .220170115620E-02   .226996548009E-02   .234034635125E-02   .241290939301E-02   .248772226330E-02
   .256485471770E-02   .264437867450E-02   .272636828172E-02   .281089998625E-02   .289805260509E-02
   .298790739888E-02   .308054814757E-02   .317606122860E-02   .327453569736E-02   .337606337021E-02
   .348073891012E-02   .358865991482E-02   .369992700786E-02   .381464393232E-02   .393291764756E-02
   .405485842889E-02   .418057997033E-02   .431019949062E-02   .444383784240E-02   .458161962490E-02
   .472367330000E-02   .487013131196E-02   .502113021085E-02   .517681077977E-02   .533731816603E-02
   .550280201637E-02   .567341661641E-02   .584932103437E-02   .603067926924E-02   .621766040359E-02
   .641043876100E-02   .660919406849E-02   .681411162386E-02   .702538246826E-02   .724320356412E-02
   .746777797850E-02   .769931507218E-02   .793803069454E-02   .818414738453E-02   .843789457774E-02
   .869950881997E-02   .896923398734E-02   .924732151315E-02   .953403062187E-02   .982962857020E-02
   .101343908956E-01   .104486016727E-01   .107725537769E-01   .111065491575E-01   .114508991172E-01
   .118059246024E-01   .121719565005E-01   .125493359479E-01   .129384146463E-01   .133395551893E-01
   .137531313988E-01   .141795286721E-01   .146191443389E-01   .150723880302E-01   .155396820573E-01
   .160214618035E-01   .165181761272E-01   .170302877774E-01   .175582738216E-01   .181026260872E-01
   .186638516162E-01   .192424731332E-01   .198390295283E-01   .204540763545E-01   .210881863391E-01
   .217419499126E-01   .224159757510E-01   .231108913370E-01   .238273435357E-01   .245659991892E-01
   .253275457284E-01   .261126918025E-01   .269221679286E-01   .277567271587E-01   .286171457681E-01
   .295042239634E-01   .304187866110E-01   .313616839872E-01   .323337925507E-01   .333360157366E-01
   .343692847737E-01   .354345595261E-01   .365328293572E-01   .376651140203E-01   .388324645728E-01
   .400359643169E-01   .412767297665E-01   .425559116408E-01   .438746958854E-01   .452343047211E-01
   .466359977212E-01   .480810729174E-01   .495708679356E-01   .511067611610E-01   .526901729330E-01
   .543225667715E-01   .560054506335E-01   .577403782008E-01   .595289501989E-01   .613728157481E-01
   .632736737450E-01   .652332742765E-01   .672534200650E-01   .693359679442E-01   .714828303671E-01
   .736959769429E-01   .759774360049E-01   .783292962072E-01   .807537081490E-01   .832528860266E-01
   .858291093106E-01   .884847244467E-01   .912221465794E-01   .940438612944E-01   .969524263790E-01
   .999504735966E-01   .103040710471E+00   .106225922082E+00   .109508972853E+00   .112892808354E+00
   .116380457078E+00   .119975032217E+00   .123679733410E+00   .127497848466E+00   .131432755049E+00
   .135487922315E+00   .139666912491E+00   .143973382387E+00   .148411084826E+00   .152983869971E+00
   .157695686545E+00   .162550582918E+00   .167552708043E+00   .172706312216E+00   .178015747650E+00
   .183485468814E+00   .189120032532E+00   .194924097791E+00   .200902425238E+00   .207059876319E+00
   .213401412022E+00   .219932091181E+00   .226657068280E+00   .233581590726E+00   .240710995507E+00
   .248050705184E+00   .255606223149E+00   .263383128070E+00   .271387067434E+00   .279623750111E+00
   .288098937841E+00   .296818435529E+00   .305788080245E+00   .315013728810E+00   .324501243831E+00
   .334256478046E+00   .344285256835E+00   .354593358731E+00   .365186493763E+00   .376070279443E+00
   .387250214214E+00   .398731648148E+00   .410519750679E+00   .422619475139E+00   .435035519877E+00
   .447772285693E+00   .460833829349E+00   .474223812884E+00   .487945448468E+00   .502001438532E+00
   .516393910884E+00   .531124348571E+00   .546193514201E+00   .561601368496E+00   .577346982847E+00
   .593428445668E+00   .609842762392E+00   .626585748984E+00   .643651918930E+00   .661034363690E+00
   .678724626742E+00   .696712571408E+00   .714986242788E+00   .733531724292E+00   .752332989392E+00
   .771371749455E+00   .790627298695E+00   .810076357567E+00   .829692916186E+00   .849448079667E+00
   .869309917625E+00   .889243320424E+00   .909209865158E+00   .929167694744E+00   .949071413897E+00
   .968872006174E+00   .988516776605E+00   .100794932478E+01   .102710955349E+01   .104593371802E+01
   .106435452146E+01   .108230126065E+01   .109970002722E+01   .111647396719E+01   .113254360088E+01
   .114782720355E+01   .116224124402E+01   .117570087540E+01   .118812046806E+01   .119941416901E+01
   .120949646640E+01   .121828272955E+01   .122568968673E+01   .123163579299E+01   .123604142967E+01
   .123882886587E+01   .123992190088E+01   .123924509600E+01   .123672249502E+01   .123227572715E+01
   .122582138576E+01   .121726758276E+01   .120650959616E+01   .119342455898E+01   .117785650617E+01
   .115980407378E+01   .113935785774E+01   .111664160802E+01   .109179088500E+01   .106495196327E+01
   .103628065227E+01   .100594104726E+01
 ae wavefunction
  -.597520737029E-03  -.616014834872E-03  -.635081121050E-03  -.654737284352E-03  -.675001559522E-03
  -.695892744057E-03  -.717430215506E-03  -.739633949310E-03  -.762524537174E-03  -.786123206011E-03
  -.810451837452E-03  -.835532987960E-03  -.861389909552E-03  -.888046571153E-03  -.915527680598E-03
  -.943858707309E-03  -.973065905652E-03  -.100317633901E-02  -.103421790460E-02  -.106621935899E-02
  -.109921034448E-02  -.113322141619E-02  -.116828407002E-02  -.120443077147E-02  -.124169498526E-02
  -.128011120594E-02  -.131971498934E-02  -.136054298500E-02  -.140263296964E-02  -.144602388151E-02
  -.149075585586E-02  -.153687026151E-02  -.158440973839E-02  -.163341823634E-02  -.168394105501E-02
  -.173602488491E-02  -.178971784981E-02  -.184506955030E-02  -.190213110868E-02  -.196095521519E-02
  -.202159617565E-02  -.208410996044E-02  -.214855425501E-02  -.221498851184E-02  -.228347400396E-02
  -.235407388005E-02  -.242685322113E-02  -.250187909902E-02  -.257922063635E-02  -.265894906854E-02
  -.274113780742E-02  -.282586250679E-02  -.291320112992E-02  -.300323401895E-02  -.309604396638E-02
  -.319171628853E-02  -.329033890128E-02  -.339200239787E-02  -.349680012897E-02  -.360482828512E-02
  -.371618598146E-02  -.383097534491E-02  -.394930160383E-02  -.407127318028E-02  -.419700178481E-02
  -.432660251403E-02  -.446019395083E-02  -.459789826753E-02  -.473984133181E-02  -.488615281566E-02
  -.503696630737E-02  -.519241942658E-02  -.535265394253E-02  -.551781589555E-02  -.568805572191E-02
  -.586352838201E-02  -.604439349209E-02  -.623081545952E-02  -.642296362162E-02  -.662101238832E-02
  -.682514138853E-02  -.703553562035E-02  -.725238560533E-02  -.747588754666E-02  -.770624349147E-02
  -.794366149740E-02  -.818835580325E-02  -.844054700419E-02  -.870046223115E-02  -.896833533485E-02
  -.924440707431E-02  -.952892531003E-02  -.982214520178E-02  -.101243294112E-01  -.104357483093E-01
  -.107566801887E-01  -.110874114808E-01  -.114282369781E-01  -.117794600613E-01  -.121413929319E-01
  -.125143568493E-01  -.128986823738E-01  -.132947096139E-01  -.137027884795E-01  -.141232789401E-01
  -.145565512880E-01  -.150029864066E-01  -.154629760445E-01  -.159369230941E-01  -.164252418753E-01
  -.169283584247E-01  -.174467107893E-01  -.179807493252E-01  -.185309370012E-01  -.190977497066E-01
  -.196816765642E-01  -.202832202471E-01  -.209028972994E-01  -.215412384616E-01  -.221987889989E-01
  -.228761090336E-01  -.235737738797E-01  -.242923743814E-01  -.250325172529E-01  -.257948254211E-01
  -.265799383690E-01  -.273885124812E-01  -.282212213885E-01  -.290787563142E-01  -.299618264178E-01
  -.308711591389E-01  -.318075005381E-01  -.327716156348E-01  -.337642887420E-01  -.347863237951E-01
  -.358385446760E-01  -.369217955294E-01  -.380369410714E-01  -.391848668884E-01  -.403664797251E-01
  -.415827077607E-01  -.428345008702E-01  -.441228308711E-01  -.454486917519E-01  -.468130998811E-01
  -.482170941953E-01  -.496617363628E-01  -.511481109214E-01  -.526773253869E-01  -.542505103313E-01
  -.558688194249E-01  -.575334294425E-01  -.592455402279E-01  -.610063746141E-01  -.628171782964E-01
  -.646792196524E-01  -.665937895071E-01  -.685622008361E-01  -.705857884052E-01  -.726659083384E-01
  -.748039376113E-01  -.770012734632E-01  -.792593327228E-01  -.815795510400E-01  -.839633820196E-01
  -.864122962467E-01  -.889277802005E-01  -.915113350453E-01  -.941644752932E-01  -.968887273285E-01
  -.996856277863E-01  -.102556721775E+00  -.105503560933E+00  -.108527701313E+00  -.111630701071E+00
  -.114814117975E+00  -.118079506685E+00  -.121428415828E+00  -.124862384832E+00  -.128382940516E+00
  -.131991593419E+00  -.135689833858E+00  -.139479127696E+00  -.143360911804E+00  -.147336589214E+00
  -.151407523923E+00  -.155575035361E+00  -.159840392479E+00  -.164204807465E+00  -.168669429044E+00
  -.173235335369E+00  -.177903526470E+00  -.182674916242E+00  -.187550323970E+00  -.192530465345E+00
  -.197615942984E+00  -.202807236404E+00  -.208104691461E+00  -.213508509213E+00  -.219018734201E+00
  -.224635242131E+00  -.230357726938E+00  -.236185687210E+00  -.242118411975E+00  -.248154965819E+00
  -.254294173335E+00  -.260534602895E+00  -.266874549721E+00  -.273312018268E+00  -.279844703909E+00
  -.286469973921E+00  -.293184847772E+00  -.299985976721E+00  -.306869622745E+00  -.313831636798E+00
  -.320867436428E+00  -.327971982785E+00  -.335139757031E+00  -.342364736213E+00  -.349640368627E+00
  -.356959548737E+00  -.364314591695E+00  -.371697207546E+00  -.379098475184E+00  -.386508816155E+00
  -.393917968397E+00  -.401314960036E+00  -.408688083349E+00  -.416024869035E+00  -.423312060933E+00
  -.430535591355E+00  -.437680557200E+00  -.444731197039E+00  -.451670869384E+00  -.458482032335E+00
  -.465146224877E+00  -.471644050039E+00  -.477955160211E+00  -.484058244892E+00  -.489931021166E+00
  -.495550227230E+00  -.500891619310E+00  -.505929972305E+00  -.510639084533E+00  -.514991786958E+00
  -.518959957286E+00  -.522514539352E+00  -.525625568199E+00  -.528262201296E+00  -.530392756321E+00
  -.531984755958E+00  -.533004980157E+00  -.533419526305E+00  -.533193877757E+00  -.532292981162E+00
  -.530681333023E+00  -.528323075905E+00  -.525182104684E+00  -.521222183211E+00  -.516407071726E+00
  -.510700665319E+00  -.504067143693E+00  -.496471132405E+00  -.487877875730E+00  -.478253421166E+00
  -.467564815560E+00  -.455780312685E+00  -.442869592018E+00  -.428803988313E+00  -.413556731446E+00
  -.397103195830E+00  -.379421158553E+00  -.360491065208E+00  -.340296302214E+00  -.318823474239E+00
  -.296062685183E+00  -.272007821000E+00  -.246656832508E+00  -.220012016240E+00  -.192080291270E+00
  -.162873469927E+00  -.132408520268E+00  -.100707818152E+00  -.677993867027E-01  -.337171208218E-01
   .149900587593E-02   .378027548766E-01   .751414614371E-01   .113455903761E+00   .152680210710E+00
   .192741819571E+00   .233561500197E+00   .275053467550E+00   .317125609833E+00   .359679859700E+00
   .402612723554E+00   .445815947236E+00   .489177227382E+00   .532580786825E+00   .575907566566E+00
   .619034824821E+00   .661835133970E+00   .704175088578E+00   .745914315462E+00   .786905395754E+00
   .826994971469E+00   .866025783091E+00   .903839034545E+00   .940276532166E+00   .975182362464E+00
   .100840416780E+01   .103979419983E+01   .106921031168E+01   .109651698096E+01   .112158639312E+01
   .114429957418E+01   .116454754177E+01   .118223243614E+01   .119726859418E+01   .120958353433E+01
   .121911882731E+01   .122583083392E+01   .122969129705E+01   .123068777947E+01   .122882394266E+01
   .122411966470E+01   .121661099761E+01   .120634996663E+01   .119340421583E+01   .117785650617E+01
   .115980407378E+01   .113935785774E+01   .111664160802E+01   .109179088500E+01   .106495196327E+01
   .103628065227E+01   .100594104726E+01
 pseudo wavefunction
   .749153966334E-05   .772381713833E-05   .796329644722E-05   .821020088506E-05   .846476067022E-05
   .872721315907E-05   .899780306726E-05   .927678269795E-05   .956441217700E-05   .986095969559E-05
   .101667017602E-04   .104819234506E-04   .108069186852E-04   .111419904960E-04   .114874513100E-04
   .118436232415E-04   .122108383919E-04   .125894391595E-04   .129797785587E-04   .133822205493E-04
   .137971403759E-04   .142249249173E-04   .146659730479E-04   .151206960093E-04   .155895177936E-04
   .160728755389E-04   .165712199370E-04   .170850156536E-04   .176147417612E-04   .181608921864E-04
   .187239761697E-04   .193045187413E-04   .199030612096E-04   .205201616666E-04   .211563955081E-04
   .218123559703E-04   .224886546825E-04   .231859222381E-04   .239048087820E-04   .246459846169E-04
   .254101408286E-04   .261979899301E-04   .270102665259E-04   .278477279973E-04   .287111552082E-04
   .296013532334E-04   .305191521091E-04   .314654076072E-04   .324410020326E-04   .334468450465E-04
   .344838745142E-04   .355530573796E-04   .366553905671E-04   .377919019105E-04   .389636511120E-04
   .401717307298E-04   .414172671973E-04   .427014218727E-04   .440253921224E-04   .453904124372E-04
   .467977555834E-04   .482487337894E-04   .497446999692E-04   .512870489841E-04   .528772189429E-04
   .545166925430E-04   .562069984526E-04   .579497127362E-04   .597464603242E-04   .615989165274E-04
   .635088085997E-04   .654779173479E-04   .675080787925E-04   .696011858792E-04   .717591902442E-04
   .739841040332E-04   .762780017779E-04   .786430223302E-04   .810813708558E-04   .835953208906E-04
   .861872164603E-04   .888594742657E-04   .916145859356E-04   .944551203501E-04   .973837260355E-04
   .100403133633E-03   .103516158446E-03   .106725703061E-03   .110034760059E-03   .113446414800E-03
   .116963848304E-03   .120590340212E-03   .124329271847E-03   .128184129363E-03   .132158506998E-03
   .136256110421E-03   .140480760189E-03   .144836395307E-03   .149327076901E-03   .153956992000E-03
   .158730457444E-03   .163651923901E-03   .168725980022E-03   .173957356712E-03   .179350931544E-03
   .184911733300E-03   .190644946661E-03   .196555917039E-03   .202650155553E-03   .208933344172E-03
   .215411341003E-03   .222090185754E-03   .228976105359E-03   .236075519779E-03   .243395047985E-03
   .250941514122E-03   .258721953868E-03   .266743620986E-03   .275013994082E-03   .283540783567E-03
   .292331938842E-03   .301395655696E-03   .310740383941E-03   .320374835278E-03   .330307991406E-03
   .340549112385E-03   .351107745255E-03   .361993732919E-03   .373217223305E-03   .384788678806E-03
   .396718886016E-03   .409018965761E-03   .421700383446E-03   .434774959710E-03   .448254881425E-03
   .462152713016E-03   .476481408146E-03   .491254321747E-03   .506485222429E-03   .522188305272E-03
   .538378205000E-03   .555070009572E-03   .572279274183E-03   .590022035697E-03   .608314827520E-03
   .627174694929E-03   .646619210875E-03   .666666492260E-03   .687335216717E-03   .708644639903E-03
   .730614613314E-03   .753265602647E-03   .776618706718E-03   .800695676956E-03   .825518937487E-03
   .851111605826E-03   .877497514199E-03   .904701231500E-03   .932748085921E-03   .961664188254E-03
   .991476455895E-03   .102221263757E-02   .105390133881E-02   .108657204815E-02   .112025516414E-02
   .115498202318E-02   .119078492810E-02   .122769717767E-02   .126575309691E-02   .130498806835E-02
   .134543856412E-02   .138714217909E-02   .143013766484E-02   .147446496470E-02   .152016524975E-02
   .156728095587E-02   .161585582184E-02   .166593492849E-02   .171756473894E-02   .177079314004E-02
   .182566948483E-02   .188224463625E-02   .194057101199E-02   .200070263058E-02   .206269515869E-02
   .212660595962E-02   .219249414316E-02   .226042061662E-02   .233044813717E-02   .240264136555E-02
   .247706692101E-02   .255379343757E-02   .263289162165E-02   .271443431098E-02   .279849653486E-02
   .288515557564E-02   .297449103161E-02   .306658488112E-02   .316152154787E-02   .325938796757E-02
   .336027365564E-02   .346427077614E-02   .357147421169E-02   .368198163445E-02   .379589357801E-02
   .391331351007E-02   .403434790594E-02   .415910632249E-02   .428770147268E-02   .442024930032E-02
   .455686905494E-02   .469768336658E-02   .484281832021E-02   .499240352958E-02   .514657221014E-02
   .530546125076E-02   .546921128382E-02   .563796675327E-02   .581187598023E-02   .599109122560E-02
   .617576874901E-02   .636606886367E-02   .656215598618E-02   .676419868077E-02   .697236969677E-02
   .718684599872E-02   .740780878775E-02   .763544351321E-02   .786993987324E-02   .811149180272E-02
   .836029744722E-02   .861655912101E-02   .888048324732E-02   .915228027866E-02   .943216459493E-02
   .972035437665E-02   .100170714506E-01   .103225411047E-01   .106369918686E-01   .109606552563E-01
   .112937654671E-01   .116365590391E-01   .119892744520E-01   .123521516718E-01   .127254316337E-01
   .131093556539E-01   .135041647654E-01   .139100989685E-01   .143273963880E-01   .147562923274E-01
   .151970182087E-01   .156498003886E-01   .161148588359E-01   .165924056589E-01   .170826434653E-01
   .175857635404E-01   .181019438244E-01   .186313466694E-01   .191741163544E-01   .197303763356E-01
   .203002262054E-01   .208837383323E-01   .214809541521E-01   .220918800752E-01   .227164829750E-01
   .233546852175E-01   .240063591882E-01   .246713212690E-01   .253493252149E-01   .260400548731E-01
   .267431161845E-01   .274580284010E-01   .281842144471E-01   .289209903469E-01   .296675536323E-01
   .304229706408E-01   .311861626020E-01   .319558904069E-01   .327307379410E-01   .335090938577E-01
   .342891316546E-01   .350687879062E-01   .358457384962E-01   .366173726801E-01   .373807647954E-01
   .381326434266E-01   .388693578164E-01   .395868413023E-01   .402805715446E-01   .409455272961E-01
   .415761414522E-01   .421662501060E-01   .427090373221E-01   .431969753302E-01   .436217598326E-01
   .439742401142E-01   .442443436401E-01   .444209948310E-01   .444920277162E-01   .444440921827E-01
   .442625535694E-01   .439313854003E-01   .434330551140E-01   .427484027319E-01   .418565125243E-01
   .407345778846E-01   .393577598199E-01   .376990397196E-01   .357290673897E-01   .334160057514E-01
   .307253741230E-01   .276198926529E-01   .240593312867E-01   .200003676562E-01   .153964595246E-01
   .101977389494E-01   .435093719214E-02  -.220064832746E-02  -.951713100264E-02  -.176619386281E-01
  -.267016224118E-01  -.367055456440E-01  -.477454209460E-01  -.598946589318E-01  -.732274842538E-01
  -.878177674327E-01  -.103737512745E+00  -.121054934038E+00  -.139832042132E+00  -.160091921596E+00
  -.181957508501E+00  -.205476527333E+00  -.230732902009E+00  -.257815937118E+00  -.286821237265E+00
  -.317851796637E+00  -.351019286889E+00
 ae wavefunction
  -.233161820193E-04  -.240378502020E-04  -.247818460439E-04  -.255488597881E-04  -.263396029812E-04
  -.271548091294E-04  -.279952343735E-04  -.288616581846E-04  -.297548840814E-04  -.306757403692E-04
  -.316250809016E-04  -.326037858646E-04  -.336127625859E-04  -.346529463681E-04  -.357253013467E-04
  -.368308213754E-04  -.379705309378E-04  -.391454860860E-04  -.403567754093E-04  -.416055210306E-04
  -.428928796345E-04  -.442200435254E-04  -.455882417183E-04  -.469987410623E-04  -.484528473984E-04
  -.499519067518E-04  -.514973065608E-04  -.530904769420E-04  -.547328919944E-04  -.564260711422E-04
  -.581715805184E-04  -.599710343899E-04  -.618260966250E-04  -.637384822053E-04  -.657099587833E-04
  -.677423482853E-04  -.698375285641E-04  -.719974350991E-04  -.742240627489E-04  -.765194675546E-04
  -.788857685980E-04  -.813251499143E-04  -.838398624616E-04  -.864322261493E-04  -.891046319258E-04
  -.918595439285E-04  -.946995016970E-04  -.976271224513E-04  -.100645103438E-03  -.103756224343E-03
  -.106963349778E-03  -.110269431839E-03  -.113677512736E-03  -.117190727505E-03  -.120812306794E-03
  -.124545579733E-03  -.128393976885E-03  -.132361033285E-03  -.136450391565E-03  -.140665805164E-03
  -.145011141642E-03  -.149490386076E-03  -.154107644561E-03  -.158867147809E-03  -.163773254845E-03
  -.168830456819E-03  -.174043380910E-03  -.179416794355E-03  -.184955608578E-03  -.190664883447E-03
  -.196549831633E-03  -.202615823108E-03  -.208868389754E-03  -.215313230103E-03  -.221956214206E-03
  -.228803388637E-03  -.235860981630E-03  -.243135408355E-03  -.250633276334E-03  -.258361391007E-03
  -.266326761441E-03  -.274536606189E-03  -.282998359305E-03  -.291719676517E-03  -.300708441557E-03
  -.309972772656E-03  -.319521029201E-03  -.329361818567E-03  -.339504003113E-03  -.349956707359E-03
  -.360729325339E-03  -.371831528128E-03  -.383273271562E-03  -.395064804132E-03  -.407216675073E-03
  -.419739742641E-03  -.432645182581E-03  -.445944496789E-03  -.459649522169E-03  -.473772439687E-03
  -.488325783630E-03  -.503322451051E-03  -.518775711430E-03  -.534699216525E-03  -.551107010426E-03
  -.568013539818E-03  -.585433664431E-03  -.603382667704E-03  -.621876267634E-03  -.640930627833E-03
  -.660562368767E-03  -.680788579195E-03  -.701626827793E-03  -.723095174954E-03  -.745212184772E-03
  -.767996937198E-03  -.791469040354E-03  -.815648643010E-03  -.840556447203E-03  -.866213721001E-03
  -.892642311389E-03  -.919864657269E-03  -.947903802565E-03  -.976783409411E-03  -.100652777141E-02
  -.103716182694E-02  -.106871117250E-02  -.110120207607E-02  -.113466149040E-02  -.116911706637E-02
  -.120459716617E-02  -.124113087644E-02  -.127874802127E-02  -.131747917501E-02  -.135735567488E-02
  -.139840963337E-02  -.144067395027E-02  -.148418232442E-02  -.152896926501E-02  -.157507010248E-02
  -.162252099886E-02  -.167135895753E-02  -.172162183238E-02  -.177334833617E-02  -.182657804812E-02
  -.188135142062E-02  -.193770978492E-02  -.199569535573E-02  -.205535123470E-02  -.211672141248E-02
  -.217985076946E-02  -.224478507488E-02  -.231157098432E-02  -.238025603528E-02  -.245088864086E-02
  -.252351808119E-02  -.259819449261E-02  -.267496885429E-02  -.275389297217E-02  -.283501945998E-02
  -.291840171708E-02  -.300409390297E-02  -.309215090817E-02  -.318262832124E-02  -.327558239157E-02
  -.337106998778E-02  -.346914855138E-02  -.356987604524E-02  -.367331089677E-02  -.377951193516E-02
  -.388853832260E-02  -.400044947881E-02  -.411530499863E-02  -.423316456214E-02  -.435408783697E-02
  -.447813437207E-02  -.460536348276E-02  -.473583412622E-02  -.486960476702E-02  -.500673323218E-02
  -.514727655491E-02  -.529129080665E-02  -.543883091657E-02  -.558995047800E-02  -.574470154092E-02
  -.590313438987E-02  -.606529730653E-02  -.623123631611E-02  -.640099491677E-02  -.657461379124E-02
  -.675213049979E-02  -.693357915358E-02  -.711899006763E-02  -.730838939228E-02  -.750179872245E-02
  -.769923468346E-02  -.790070849270E-02  -.810622549597E-02  -.831578467760E-02  -.852937814338E-02
  -.874699057524E-02  -.896859865676E-02  -.919417046853E-02  -.942366485247E-02  -.965703074412E-02
  -.989420647213E-02  -.101351190240E-01  -.103796832776E-01  -.106278011971E-01  -.108793609939E-01
  -.111342362507E-01  -.113922850092E-01  -.116533488208E-01  -.119172517605E-01  -.121837994037E-01
  -.124527777658E-01  -.127239522065E-01  -.129970662976E-01  -.132718406561E-01  -.135479717448E-01
  -.138251306395E-01  -.141029617675E-01  -.143810816174E-01  -.146590774244E-01  -.149365058337E-01
  -.152128915449E-01  -.154877259436E-01  -.157604657230E-01  -.160305315018E-01  -.162973064446E-01
  -.165601348920E-01  -.168183210067E-01  -.170711274464E-01  -.173177740706E-01  -.175574366933E-01
  -.177892458935E-01  -.180122858940E-01  -.182255935250E-01  -.184281572858E-01  -.186189165218E-01
  -.187967607349E-01  -.189605290465E-01  -.191090098337E-01  -.192409405620E-01  -.193550078400E-01
  -.194498477191E-01  -.195240462713E-01  -.195761404705E-01  -.196046194138E-01  -.196079259150E-01
  -.195844585071E-01  -.195325738956E-01  -.194505898999E-01  -.193367889311E-01  -.191894220497E-01
  -.190067136528E-01  -.187868668432E-01  -.185280695320E-01  -.182285013331E-01  -.178863413056E-01
  -.174997766060E-01  -.170670121108E-01  -.165862810746E-01  -.160558568871E-01  -.154740659960E-01
  -.148393020603E-01  -.141500414011E-01  -.134048598147E-01  -.126024508112E-01  -.117416453405E-01
  -.108214330651E-01  -.984098523443E-02  -.879967921215E-02  -.769712470357E-02  -.653319172454E-02
  -.530804034818E-02  -.402215226051E-02  -.267636415028E-02  -.127190295294E-02   .189577036845E-03
   .170595517641E-02   .327460360998E-02   .489234453840E-02   .655540565163E-02   .825937377700E-02
   .999914683509E-02   .117688842523E-01   .135619560639E-01   .153708910600E-01   .171873244954E-01
   .190019461006E-01   .208044494041E-01   .225834836440E-01   .243266097053E-01   .260202612761E-01
   .276497113365E-01   .291990416525E-01   .306511090152E-01   .319874976759E-01   .331884458190E-01
   .342327390239E-01   .350975771110E-01   .357584379706E-01   .361889726067E-01   .363609597453E-01
   .362443252137E-01   .358072040621E-01   .350160110352E-01   .338354941862E-01   .322287655203E-01
   .301573162355E-01   .275810273720E-01   .244581834381E-01   .207454919725E-01   .163981085274E-01
   .113696645545E-01   .561229480389E-02  -.923339411683E-03  -.828803470968E-02  -.165340414114E-01
  -.257150741010E-01  -.358863405838E-01  -.471045931267E-01  -.594282062717E-01  -.729172860652E-01
  -.876338162163E-01  -.103641847499E+00  -.121007737659E+00  -.139800450182E+00  -.160091921596E+00
  -.181957508501E+00  -.205476527333E+00  -.230732902009E+00  -.257815937118E+00  -.286821237265E+00
  -.317851796637E+00  -.351019286889E+00
 pseudo wavefunction
   .752962849494E-08   .800378380950E-08   .850779760403E-08   .904355012493E-08   .961304002135E-08
   .102183918013E-07   .108618637570E-07   .115458563900E-07   .122729213658E-07   .130457710335E-07
   .138672885438E-07   .147405386052E-07   .156687789167E-07   .166554723209E-07   .177042997225E-07
   .188191738197E-07   .200042537009E-07   .212639603606E-07   .226029931915E-07   .240263475165E-07
   .255393332233E-07   .271475945739E-07   .288571312602E-07   .306743207862E-07   .326059422599E-07
   .346592016826E-07   .368417588318E-07   .391617558355E-07   .416278475477E-07   .442492338350E-07
   .470356938975E-07   .499976227504E-07   .531460700032E-07   .564927810803E-07   .600502410384E-07
   .638317211424E-07   .678513283742E-07   .721240580595E-07   .766658498087E-07   .814936469801E-07
   .866254598878E-07   .920804329903E-07   .978789163093E-07   .104042541346E-06   .110594301781E-06
   .117558639247E-06   .124961534518E-06   .132830604423E-06   .141195204878E-06   .150086540398E-06
   .159537780503E-06   .169584183463E-06   .180263227829E-06   .191614752248E-06   .203681104080E-06
   .216507297382E-06   .230141180831E-06   .244633616223E-06   .260038668222E-06   .276413806045E-06
   .293820117852E-06   .312322538643E-06   .331990092494E-06   .352896150061E-06   .375118702284E-06
   .398740651339E-06   .423850119911E-06   .450540779929E-06   .478912202021E-06   .509070226962E-06
   .541127360516E-06   .575203193140E-06   .611424846125E-06   .649927445821E-06   .690854627730E-06
   .734359072343E-06   .780603074718E-06   .829759149925E-06   .882010676615E-06   .937552581122E-06
   .996592064635E-06   .105934937617E-05   .112605863420E-05   .119696870005E-05   .127234410628E-05
   .135246604351E-05   .143763340941E-05   .152816392374E-05   .162439531360E-05   .172668657333E-05
   .183541930371E-05   .195099913557E-05   .207385724293E-05   .220445195151E-05   .234327044852E-05
   .249083060010E-05   .264768288317E-05   .281441243900E-05   .299164125605E-05   .318003049024E-05
   .338028293142E-05   .359314562503E-05   .381941265892E-05   .405992812567E-05   .431558927138E-05
   .458734984277E-05   .487622364507E-05   .518328832389E-05   .550968938529E-05   .585664446892E-05
   .622544789026E-05   .661747546894E-05   .703418966094E-05   .747714501410E-05   .794799396706E-05
   .844849301337E-05   .898050925371E-05   .954602736069E-05   .101471569822E-04   .107861406109E-04
   .114653619492E-04   .121873548010E-04   .129548125231E-04   .137705980721E-04   .146377546832E-04
   .155595172221E-04   .165393242513E-04   .175808308560E-04   .186879222776E-04   .198647284056E-04
   .211156391818E-04   .224453209747E-04   .238587339841E-04   .253611507419E-04   .269581757775E-04
   .286557665213E-04   .304602555238E-04   .323783740737E-04   .344172773031E-04   .365845708721E-04
   .388883393339E-04   .413371762851E-04   .439402164139E-04   .467071695654E-04   .496483569506E-04
   .527747496351E-04   .560980094497E-04   .596305324753E-04   .633854952653E-04   .673769039757E-04
   .716196465876E-04   .761295484152E-04   .809234311067E-04   .860191753568E-04   .914357875658E-04
   .971934706909E-04   .103313699555E-03   .109819300894E-03   .116734538435E-03   .124085203330E-03
   .131898710274E-03   .140204199667E-03   .149032646202E-03   .158416974276E-03   .168392180663E-03
   .178995464887E-03   .190266367804E-03   .202246918876E-03   .214981792713E-03   .228518475445E-03
   .242907441539E-03   .258202341731E-03   .274460202753E-03   .291741639604E-03   .310111081142E-03
   .329637009839E-03   .350392216575E-03   .372454071420E-03   .395904811398E-03   .420831846295E-03
   .447328083635E-03   .475492274024E-03   .505429378130E-03   .537250956638E-03   .571075584631E-03
   .607029291898E-03   .645246030781E-03   .685868173292E-03   .729047039286E-03   .774943457647E-03
   .823728362502E-03   .875583426652E-03   .930701734520E-03   .989288497028E-03   .105156181103E-02
   .111775346601E-02   .118810980096E-02   .126289261453E-02   .134238013171E-02   .142686803046E-02
   .151667053205E-02   .161212155885E-02   .171357596382E-02   .182141083589E-02   .193602688603E-02
   .205784991863E-02   .218733239350E-02   .232495508390E-02   .247122883631E-02   .262669643795E-02
   .279193459857E-02   .296755605321E-02   .315421179296E-02   .335259343139E-02   .356343571443E-02
   .378751918209E-02   .402567299071E-02   .427877790498E-02   .454776946944E-02   .483364136951E-02
   .513744899269E-02   .546031320115E-02   .580342432722E-02   .616804640409E-02   .655552164419E-02
   .696727517872E-02   .740482007182E-02   .786976262382E-02   .836380797821E-02   .888876604762E-02
   .944655777455E-02   .100392217429E-01   .106689211572E-01   .113379512054E-01   .120487468240E-01
   .128038908815E-01   .136061227976E-01   .144583476164E-01   .153636455503E-01   .163252820110E-01
   .173467181450E-01   .184316218873E-01   .195838795501E-01   .208076079573E-01   .221071671380E-01
   .234871735866E-01   .249525140974E-01   .265083601762E-01   .281601830290E-01   .299137691223E-01
   .317752363052E-01   .337510504763E-01   .358480427721E-01   .380734272434E-01   .404348189791E-01
   .429402526213E-01   .455982012083E-01   .484175952612E-01   .514078420169E-01   .545788446896E-01
   .579410216205E-01   .615053251516E-01   .652832600301E-01   .692869011200E-01   .735289101605E-01
   .780225512728E-01   .827817048703E-01   .878208795808E-01   .931552217322E-01   .988005218952E-01
   .104773217906E+00   .111090393723E+00   .117769773392E+00   .124829709298E+00   .132289163800E+00
   .140167683236E+00   .148485363176E+00   .157262803684E+00   .166521053231E+00   .176281539773E+00
   .186565987354E+00   .197396316506E+00   .208794526515E+00   .220782557550E+00   .233382130485E+00
   .246614562130E+00   .260500553521E+00   .275059948784E+00   .290311462107E+00   .306272370309E+00
   .322958168582E+00   .340382187095E+00   .358555166379E+00   .377484789739E+00   .397175171407E+00
   .417626299759E+00   .438833435755E+00   .460786467780E+00   .483469225366E+00   .506858755849E+00
   .530924569958E+00   .555627864597E+00   .580920733798E+00   .606745381926E+00   .633033356825E+00
   .659704824618E+00   .686667912352E+00   .713818149588E+00   .741038045207E+00   .768196841104E+00
   .795150489813E+00   .821741908171E+00   .847801563580E+00   .873148452661E+00   .897591533610E+00
   .920931672497E+00   .942964159203E+00   .963481839520E+00   .982278894877E+00   .999155278756E+00
   .101392178757E+01   .102640570207E+01   .103645688164E+01   .104395412710E+01   .104881154724E+01
   .105098456981E+01   .105047513218E+01   .104733547152E+01   .104166981715E+01   .103363317636E+01
   .102342631295E+01   .101128596290E+01   .997469337037E+00   .982232053788E+00   .965798861574E+00
   .948326885166E+00   .929857739347E+00
 ae wavefunction
   .638386667376E-07   .677120719962E-07   .717878148162E-07   .760781692450E-07   .805960852755E-07
   .853552309281E-07   .903700368932E-07   .956557437996E-07   .101228452275E-06   .107105175975E-06
   .113303897768E-06   .119843629279E-06   .126744473999E-06   .134027694187E-06   .141715781809E-06
   .149832533758E-06   .158403131636E-06   .167454226371E-06   .177014027992E-06   .187112400866E-06
   .197780964760E-06   .209053202074E-06   .220964571654E-06   .233552629579E-06   .246857157378E-06
   .260920298125E-06   .275786700924E-06   .291503674301E-06   .308121349062E-06   .325692851214E-06
   .344274485579E-06   .363925930776E-06   .384710446267E-06   .406695092253E-06   .429950963189E-06
   .454553435806E-06   .480582432520E-06   .508122701213E-06   .537264112393E-06   .568101974841E-06
   .600737370883E-06   .635277512523E-06   .671836119748E-06   .710533822382E-06   .751498586969E-06
   .794866170246E-06   .840780600873E-06   .889394691184E-06   .940870580833E-06   .995380314344E-06
   .105310645465E-05   .111424273492E-05   .117899475101E-05   .124758069715E-05   .132023214744E-05
   .139719488621E-05   .147872979008E-05   .156511376512E-05   .165664074249E-05   .175362273610E-05
   .185639096640E-05   .196529705422E-05   .208071428910E-05   .220303897678E-05   .233269187073E-05
   .247011969307E-05   .261579675027E-05   .277022664977E-05   .293394412359E-05   .310751696575E-05
   .329154809048E-05   .348667771889E-05   .369358570193E-05   .391299398818E-05   .414566924562E-05
   .439242564673E-05   .465412782724E-05   .493169402933E-05   .522609944062E-05   .553837974126E-05
   .586963487198E-05   .622103303687E-05   .659381495531E-05   .698929837885E-05   .740888288904E-05
   .785405499401E-05   .832639354216E-05   .882757547256E-05   .935938192307E-05   .992370471820E-05
   .105225532603E-04   .111580618490E-04   .118324974554E-04   .125482679788E-04   .133079310169E-04
   .141142031792E-04   .149699699792E-04   .158782963398E-04   .168424377503E-04   .178658521140E-04
   .189522123315E-04   .201054196616E-04   .213296179102E-04   .226292084970E-04   .240088664536E-04
   .254735574115E-04   .270285556389E-04   .286794631912E-04   .304322302449E-04   .322931766840E-04
   .342690150189E-04   .363668747166E-04   .385943280294E-04   .409594174132E-04   .434706846320E-04
   .461372016512E-04   .489686034280E-04   .519751227146E-04   .551676269955E-04   .585576576880E-04
   .621574717438E-04   .659800857943E-04   .700393229956E-04   .743498627336E-04   .789272933620E-04
   .837881681551E-04   .889500646678E-04   .944316477064E-04   .100252736127E-03   .106434373689E-03
   .112998904200E-03   .119970051221E-03   .127373002584E-03   .135234500022E-03   .143582934202E-03
   .152448445488E-03   .161863030762E-03   .171860656675E-03   .182477379676E-03   .193751473245E-03
   .205723562729E-03   .218436768227E-03   .231936856004E-03   .246272398895E-03   .261494946258E-03
   .277659203982E-03   .294823225160E-03   .313048612011E-03   .332400729706E-03   .352948932759E-03
   .374766804705E-03   .397932411798E-03   .422528571522E-03   .448643136741E-03   .476369296349E-03
   .505805893338E-03   .537057761236E-03   .570236079922E-03   .605458751875E-03   .642850799952E-03
   .682544787871E-03   .724681264595E-03   .769409233900E-03   .816886650448E-03   .867280943766E-03
   .920769571575E-03   .977540603989E-03   .103779334017E-02   .110173895909E-02   .116960120612E-02
   .124161711723E-02   .131803778267E-02   .139912915210E-02   .148517288306E-02   .157646723507E-02
   .167332801131E-02   .177608955018E-02   .188510576920E-02   .200075126331E-02   .212342246037E-02
   .225353883612E-02   .239154419130E-02   .253790799365E-02   .269312678730E-02   .285772567255E-02
   .303225985866E-02   .321731629273E-02   .341351536733E-02   .362151270999E-02   .384200105741E-02
   .407571221735E-02   .432341912122E-02   .458593797008E-02   .486413047725E-02   .515890621002E-02
   .547122503343E-02   .580209965875E-02   .615259829894E-02   .652384743386E-02   .691703468697E-02
   .733341181578E-02   .777429781760E-02   .824108215208E-02   .873522808145E-02   .925827612928E-02
   .981184765789E-02   .103976485641E-01   .110174730928E-01   .116732077659E-01   .123668354262E-01
   .131004393914E-01   .138762077157E-01   .146964375537E-01   .155635396211E-01   .164800427450E-01
   .174485984965E-01   .184719858945E-01   .195531161717E-01   .206950375890E-01   .219009402849E-01
   .231741611430E-01   .245181886607E-01   .259366677978E-01   .274334047841E-01   .290123718602E-01
   .306777119238E-01   .324337430530E-01   .342849628725E-01   .362360527272E-01   .382918816234E-01
   .404575098967E-01   .427381925586E-01   .451393822735E-01   .476667319122E-01   .503260966243E-01
   .531235353679E-01   .560653118313E-01   .591578946758E-01   .624079570260E-01   .658223751276E-01
   .694082260906E-01   .731727846277E-01   .771235186983E-01   .812680839588E-01   .856143169185E-01
   .901702266971E-01   .949439852730E-01   .999439161104E-01   .105178481049E+00   .110656265340E+00
   .116385960702E+00   .122376346281E+00   .128636267393E+00   .135174611916E+00   .142000284232E+00
   .149122176577E+00   .156549137709E+00   .164289938775E+00   .172353236286E+00   .180747532104E+00
   .189481130385E+00   .198562091398E+00   .207998182192E+00   .217796824093E+00   .227965037026E+00
   .238509380698E+00   .249435892702E+00   .260750023621E+00   .272456569271E+00   .284559600216E+00
   .297062388746E+00   .309967333537E+00   .323275882213E+00   .336988452081E+00   .351104349291E+00
   .365621686691E+00   .380537300641E+00   .395846667028E+00   .411543816721E+00   .427621250673E+00
   .444069854932E+00   .460878815830E+00   .478035535801E+00   .495525550466E+00   .513332448110E+00
   .531437793276E+00   .549821057247E+00   .568459559656E+00   .587328427601E+00   .606400581552E+00
   .625646761242E+00   .645035609268E+00   .664533834316E+00   .684106476974E+00   .703717293083E+00
   .723329243608E+00   .742905026222E+00   .762407502025E+00   .781799786725E+00   .801044752505E+00
   .820103803160E+00   .838935065448E+00   .857491485850E+00   .875719528735E+00   .893559046860E+00
   .910944422795E+00   .927806518361E+00   .944074703498E+00   .959678416184E+00   .974548104615E+00
   .988615703182E+00   .100181487992E+01   .101408123971E+01   .102535257998E+01   .103556922786E+01
   .104467444950E+01   .105261490576E+01   .105934112503E+01   .106480796684E+01   .106897505609E+01
   .107180717351E+01   .107327459381E+01   .107335336666E+01   .107202553894E+01   .106927931812E+01
   .106510917804E+01   .105951590919E+01   .105250661580E+01   .104409466290E+01   .103429957658E+01
   .102314690122E+01   .101066801785E+01   .996899927778E+00   .981885006015E+00   .965670728910E+00
   .948309380191E+00   .929857739347E+00
 pseudo wavefunction
   .220510726003E-08   .234396714184E-08   .249157129973E-08   .264847037770E-08   .281524969489E-08
   .299253142912E-08   .318097693794E-08   .338128922588E-08   .359421556701E-08   .382055029271E-08
   .406113775494E-08   .431687547612E-08   .458871749742E-08   .487767793782E-08   .518483477731E-08
   .551133387839E-08   .585839326073E-08   .622730764505E-08   .661945328313E-08   .703629309200E-08
   .747938211139E-08   .795037330487E-08   .845102372634E-08   .898320107475E-08   .954889066168E-08
   .101502028176E-07   .107893807645E-07   .114688089845E-07   .121910221150E-07   .129587144045E-07
   .137747497635E-07   .146421724485E-07   .155642184184E-07   .165443274070E-07   .175861557546E-07
   .186935900482E-07   .198707616207E-07   .211220619629E-07   .224521591061E-07   .238660150366E-07
   .253689042064E-07   .269664332098E-07   .286645616989E-07   .304696246166E-07   .323883558291E-07
   .344279132469E-07   .365959055278E-07   .389004204610E-07   .413500551392E-07   .439539480303E-07
   .467218130685E-07   .496639758928E-07   .527914123670E-07   .561157895256E-07   .596495090982E-07
   .634057537739E-07   .673985363808E-07   .716427521603E-07   .761542343347E-07   .809498131736E-07
   .860473787793E-07   .914659478266E-07   .972257345048E-07   .103348225928E-06   .109856262290E-06
   .116774122077E-06   .124127612632E-06   .131944166431E-06   .140252943424E-06   .149084939813E-06
   .158473103685E-06   .168452457925E-06   .179060230869E-06   .190335995185E-06   .202321815498E-06
   .215062405314E-06   .228605293820E-06   .243001003196E-06   .258303237085E-06   .274569080933E-06
   .291859214946E-06   .310238140460E-06   .329774420555E-06   .350540935831E-06   .372615156290E-06
   .396079430329E-06   .421021291941E-06   .447533787255E-06   .475715821638E-06   .505672528661E-06
   .537515662286E-06   .571364013758E-06   .607343854751E-06   .645589408404E-06   .686243350034E-06
   .729457339371E-06   .775392586301E-06   .824220452246E-06   .876123089399E-06   .931294120217E-06
   .989939359700E-06   .105227758314E-05   .111854134224E-05   .118897783258E-05   .126384981572E-05
   .134343659941E-05   .142803507943E-05   .151796084710E-05   .161354936651E-05   .171515722584E-05
   .182316346750E-05   .193797100205E-05   .206000811101E-05   .218973004449E-05   .232762071924E-05
   .247419452368E-05   .262999823655E-05   .279561306643E-05   .297165681954E-05   .315878620412E-05
   .335769927981E-05   .356913806133E-05   .379389128594E-05   .403279735525E-05   .428674746213E-05
   .455668891448E-05   .484362866829E-05   .514863708299E-05   .547285191328E-05   .581748255219E-05
   .618381454116E-05   .657321436410E-05   .698713454305E-05   .742711905465E-05   .789480908748E-05
   .839194916163E-05   .892039363349E-05   .948211360980E-05   .100792042968E-04   .107138928117E-04
   .113885464859E-04   .121056816902E-04   .128679732154E-04   .136782642435E-04   .145395769448E-04
   .154551237435E-04   .164283192895E-04   .174627931856E-04   .185624035128E-04   .197312512075E-04
   .209736953421E-04   .222943693661E-04   .236981983688E-04   .251904174259E-04   .267765911001E-04
   .284626341667E-04   .302548336411E-04   .321598721905E-04   .341848530158E-04   .363373262963E-04
   .386253172944E-04   .410573562252E-04   .436425100008E-04   .463904159659E-04   .493113177508E-04
   .524161033729E-04   .557163457273E-04   .592243456159E-04   .629531774733E-04   .669167379579E-04
   .711297975857E-04   .756080555980E-04   .803681982623E-04   .854279608221E-04   .908061933196E-04
   .965229305343E-04   .102599466291E-03   .109058432410E-03   .115923882582E-03   .123221381479E-03
   .130978099420E-03   .139222912934E-03   .147986511589E-03   .157301511458E-03   .167202575652E-03
   .177726542333E-03   .188912560676E-03   .200802235257E-03   .213439779394E-03   .226872177969E-03
   .241149360323E-03   .256324383817E-03   .272453628720E-03   .289597005090E-03   .307818172383E-03
   .327184772542E-03   .347768677368E-03   .369646251032E-03   .392898628619E-03   .417612011640E-03
   .443877981522E-03   .471793832121E-03   .501462922350E-03   .532995050108E-03   .566506848703E-03
   .602122207080E-03   .639972715179E-03   .680198135845E-03   .722946904766E-03   .768376659988E-03
   .816654802617E-03   .867959090402E-03   .922478265944E-03   .980412721369E-03   .104197520135E-02
   .110739154646E-02   .117690147884E-02   .125075943232E-02   .132923542916E-02   .141261600551E-02
   .150120518793E-02   .159532552324E-02   .169531916395E-02   .180154901165E-02   .191439992059E-02
   .203427996383E-02   .216162176413E-02   .229688389172E-02   .244055233108E-02   .259314201851E-02
   .275519845236E-02   .292729937728E-02   .311005654364E-02   .330411754306E-02   .351016772027E-02
   .372893216124E-02   .396117775669E-02   .420771533949E-02   .446940189342E-02   .474714282991E-02
   .504189432797E-02   .535466573127E-02   .568652199462E-02   .603858617020E-02   .641204192184E-02
   .680813605302E-02   .722818103151E-02   .767355749028E-02   .814571668061E-02   .864618284913E-02
   .917655550567E-02   .973851154343E-02   .103338071668E-01   .109642795754E-01   .116318483444E-01
   .123385164336E-01   .130863707472E-01   .138775821536E-01   .147144048664E-01   .155991750686E-01
   .165343086507E-01   .175222979146E-01   .185657070761E-01   .196671663784E-01   .208293646057E-01
   .220550397596E-01   .233469676356E-01   .247079480019E-01   .261407880547E-01   .276482827843E-01
   .292331918489E-01   .308982125097E-01   .326459481392E-01   .344788717627E-01   .363992840476E-01
   .384092650983E-01   .405106193650E-01   .427048129169E-01   .449929022760E-01   .473754539542E-01
   .498524537863E-01   .524232051000E-01   .550862147310E-01   .578390658537E-01   .606782765856E-01
   .635991433185E-01   .665955677558E-01   .696598666785E-01   .727825635484E-01   .759521611798E-01
   .791548948835E-01   .823744657204E-01   .855917538030E-01   .887845119637E-01   .919270405844E-01
   .949898449578E-01   .979392772425E-01   .100737165893E+00   .103340436400E+00   .105700728264E+00
   .107764014369E+00   .109470230293E+00   .110752922566E+00   .111538926523E+00   .111748085992E+00
   .111293028748E+00   .110079013189E+00   .108003863095E+00   .104958008324E+00   .100824649867E+00
   .954800674807E-01   .887940869666E-01   .806307217945E-01   .708489998265E-01   .593039801334E-01
   .458479569870E-01   .303318378497E-01   .126066694681E-01  -.747472889487E-02  -.300560830704E-01
  -.552760085309E-01  -.832664757191E-01  -.114151505139E+00  -.148046210450E+00  -.185056306696E+00
  -.225278183433E+00  -.268799601434E+00  -.315700997901E+00  -.366057268444E+00  -.419939723556E+00
  -.477417682425E+00  -.538558859393E+00  -.603427314804E+00  -.672077287878E+00  -.744540723763E+00
  -.820805789414E+00  -.900776501472E+00
 ae wavefunction
   .214439324468E-07   .227450538540E-07   .241141425464E-07   .255553215359E-07   .270729408934E-07
   .286715918845E-07   .303561219660E-07   .321316506638E-07   .340035863888E-07   .359776442506E-07
   .380598649309E-07   .402566346844E-07   .425747065390E-07   .450212227694E-07   .476037387257E-07
   .503302481017E-07   .532092097343E-07   .562495760287E-07   .594608231140E-07   .628529828359E-07
   .664366767039E-07   .702231519137E-07   .742243195777E-07   .784527953005E-07   .829219422474E-07
   .876459168625E-07   .926397174026E-07   .979192354641E-07   .103501310689E-06   .109403788854E-06
   .115645583547E-06   .122246741665E-06   .129228512966E-06   .136613423932E-06   .144425356216E-06
   .152689629950E-06   .161433092233E-06   .170684211113E-06   .180473175406E-06   .190832000729E-06
   .201794642122E-06   .213397113679E-06   .225677615626E-06   .238676669314E-06   .252437260609E-06
   .267004992228E-06   .282428245553E-06   .298758352543E-06   .316049778347E-06   .334360315319E-06
   .353751289108E-06   .374287777622E-06   .396038843636E-06   .419077781907E-06   .443482381714E-06
   .469335205763E-06   .496723886508E-06   .525741440943E-06   .556486605049E-06   .589064189100E-06
   .623585455143E-06   .660168518030E-06   .698938771473E-06   .740029340684E-06   .783581563255E-06
   .829745500044E-06   .878680477931E-06   .930555666438E-06   .985550690318E-06   .104385628036E-05
   .110567496478E-05   .117122180374E-05   .124072516967E-05   .131442757625E-05   .139258655907E-05
   .147547561121E-05   .156338517713E-05   .165662370847E-05   .175551878572E-05   .186041830969E-05
   .197169176730E-05   .208973157610E-05   .221495451260E-05   .234780322953E-05   .248874786749E-05
   .263828776697E-05   .279695328683E-05   .296530773601E-05   .314394942522E-05   .333351384636E-05
   .353467598730E-05   .374815279061E-05   .397470576490E-05   .421514375848E-05   .447032590518E-05
   .474116475297E-05   .502862958673E-05   .533374995717E-05   .565761942839E-05   .600139955791E-05
   .636632412310E-05   .675370360942E-05   .716492997652E-05   .760148171913E-05   .806492924106E-05
   .855694056130E-05   .907928737274E-05   .963385147499E-05   .102226316042E-04   .108477506844E-04
   .115114635256E-04   .122161649961E-04   .129643986989E-04   .137588661807E-04   .146024367084E-04
   .154981576454E-04   .164492654665E-04   .174591974469E-04   .185316040699E-04   .196703621932E-04
   .208795890225E-04   .221636569392E-04   .235272092347E-04   .249751768050E-04   .265127958644E-04
   .281456267386E-04   .298795738018E-04   .317209066269E-04   .336762824202E-04   .357527698187E-04
   .379578741288E-04   .402995640943E-04   .427863002831E-04   .454270651878E-04   .482313951430E-04
   .512094141643E-04   .543718698245E-04   .577301712826E-04   .612964295958E-04   .650835004444E-04
   .691050294115E-04   .733754999652E-04   .779102843005E-04   .827256972036E-04   .878390531163E-04
   .932687265796E-04   .990342162528E-04   .105156212710E-03   .111656670231E-03   .118558882805E-03
   .125887564598E-03   .133668935117E-03   .141930809350E-03   .150702693148E-03   .160015884140E-03
   .169903578489E-03   .180400983817E-03   .191545438610E-03   .203376538487E-03   .215936269682E-03
   .229269150132E-03   .243422378573E-03   .258445992080E-03   .274393032481E-03   .291319722113E-03
   .309285649411E-03   .328353964828E-03   .348591587618E-03   .370069424026E-03   .392862597465E-03
   .417050691270E-03   .442718004648E-03   .469953822468E-03   .498852699551E-03   .529514760160E-03
   .562046013391E-03   .596558685214E-03   .633171567909E-03   .672010387694E-03   .713208191344E-03
   .756905752623E-03   .803251999378E-03   .852404462168E-03   .904529745287E-03   .959804021106E-03
   .101841354862E-02   .108055521714E-02   .114643711603E-02   .121627913145E-02   .129031357097E-02
   .136878581715E-02   .145195501068E-02   .154009476437E-02   .163349390850E-02   .173245726865E-02
   .183730647660E-02   .194838081521E-02   .206603809788E-02   .219065558326E-02   .232263092570E-02
   .246238316195E-02   .261035373437E-02   .276700755094E-02   .293283408200E-02   .310834849374E-02
   .329409281805E-02   .349063715825E-02   .369858092996E-02   .391855413602E-02   .415121867429E-02
   .439726967653E-02   .465743687645E-02   .493248600457E-02   .522322020686E-02   .553048148404E-02
   .585515214761E-02   .619815628810E-02   .656046125054E-02   .694307911142E-02   .734706815053E-02
   .777353431052E-02   .822363263580E-02   .869856868174E-02   .919959988409E-02   .972803687712E-02
   .102852447482E-01   .108726442153E-01   .114917127113E-01   .121439853606E-01   .128310558276E-01
   .135545770185E-01   .143162616155E-01   .151178824187E-01   .159612724706E-01   .168483249369E-01
   .177809927124E-01   .187612877206E-01   .197912798728E-01   .208730956493E-01   .220089162627E-01
   .232009753609E-01   .244515562249E-01   .257629884113E-01   .271376437897E-01   .285779319179E-01
   .300862946983E-01   .316652002526E-01   .333171359502E-01   .350446005212E-01   .368500951812E-01
   .387361136932E-01   .407051312866E-01   .427595923495E-01   .449018968114E-01   .471343851229E-01
   .494593217451E-01   .518788770501E-01   .543951075386E-01   .570099342762E-01   .597251194464E-01
   .625422409228E-01   .654626647589E-01   .684875154961E-01   .716176441914E-01   .748535940699E-01
   .781955637092E-01   .816433676648E-01   .851963944552E-01   .888535618226E-01   .926132691984E-01
   .964733472999E-01   .100431004795E+00   .104482771969E+00   .108624441341E+00   .112851005159E+00
   .117156589719E+00   .121534386451E+00   .125976579684E+00   .130474271047E+00   .135017400422E+00
   .139594663400E+00   .144193425222E+00   .148799631235E+00   .153397713984E+00   .157970497238E+00
   .162499097421E+00   .166962823315E+00   .171339075291E+00   .175603245994E+00   .179728625222E+00
   .183686312757E+00   .187445144036E+00   .190971634403E+00   .194229947418E+00   .197181889733E+00
   .199786927052E+00   .202002200592E+00   .203782502383E+00   .205080149019E+00   .205844694814E+00
   .206022465227E+00   .205555970546E+00   .204383344904E+00   .202437991072E+00   .199648555399E+00
   .195939222511E+00   .191230184790E+00   .185438099866E+00   .178476417697E+00   .170255565060E+00
   .160683042132E+00   .149663496034E+00   .137098815911E+00   .122888270227E+00   .106928691054E+00
   .891147026474E-01   .693389897809E-01   .474926025024E-01   .234652964071E-01  -.285408970561E-02
  -.315772144015E-01  -.628157659007E-01  -.966809378721E-01  -.133282839129E+00  -.172729826433E+00
  -.215127748539E+00  -.260579088603E+00  -.309181991105E+00  -.361029158548E+00  -.416206602397E+00
  -.474792232115E+00  -.536854265697E+00  -.602449445015E+00  -.671621039432E+00  -.744396621747E+00
  -.820785601421E+00  -.900776501472E+00
 End of Dataset
