 PAW_PBE Ca_pv 06Sep2000
 8.00000000000000000
 parameters from PSCTR are:
   VRHFIN =Ca: p6s2d0.01
   LEXCH  = PE
   EATOM  =   612.5326 eV,   45.0199 Ry

   TITEL  = PAW_PBE Ca_pv 06Sep2000
   LULTRA =        F    use ultrasoft PP ?
   IUNSCR =        1    unscreen: 0-lin 1-nonlin 2-no
   RPACOR =    2.300    partial core radius
   POMASS =   40.078; ZVAL   =    8.000    mass and valenz
   RCORE  =    3.000    outmost cutoff radius
   RWIGS  =    3.300; RWIGS  =    1.746    wigner-seitz radius (au A)
   ENMAX  =  119.554; ENMIN  =   89.665 eV
   RCLOC  =    1.709    cutoff for local pot
   LCOR   =        T    correct aug charges
   LPAW   =        T    paw PP
   EAUG   =  325.799
   DEXC   =    -.003
   RMAX   =    4.217    core radius for proj-oper
   RAUG   =    1.300    factor for augmentation sphere
   RDEP   =    3.090    radius for radial grids
   QCUT   =   -2.964; QGAM   =    5.929    optimization parameters
 
   Description
     l     E      TYP  RCUT    TYP  RCUT
     1   .000     23  3.000
     1   .100     23  3.000
     0   .000     23  3.000
     0   .000     23  3.000
     2   .000     23  3.000
     2   .000     23  3.000
   Error from kinetic energy argument (eV)
   NDATA  =      100
   STEP   =   20.000   1.050
  27.9      26.7      26.1      24.8      24.2      22.8      21.4      20.8
  19.4      18.0      17.3      16.0      14.7      13.4      12.2      11.0
  9.92      8.87      7.89      6.55      5.74      5.00      4.01      3.43
  2.92      2.25      1.71      1.41      1.03      .739      .516      .351
  .232      .148      .925E-01  .568E-01  .304E-01  .209E-01  .156E-01  .146E-01
  .144E-01  .142E-01  .132E-01  .115E-01  .934E-02  .713E-02  .515E-02  .326E-02
  .228E-02  .163E-02  .140E-02  .136E-02  .136E-02  .129E-02  .110E-02  .882E-03
  .659E-03  .443E-03  .315E-03  .263E-03  .254E-03  .252E-03  .234E-03  .191E-03
  .146E-03  .102E-03  .767E-04  .688E-04  .681E-04  .646E-04  .534E-04  .391E-04
  .283E-04  .238E-04  .232E-04  .223E-04  .187E-04  .137E-04  .101E-04  .930E-05
  .917E-05  .801E-05  .603E-05  .452E-05  .421E-05  .407E-05  .336E-05  .244E-05
  .211E-05  .207E-05  .175E-05  .131E-05  .113E-05  .110E-05  .895E-06  .684E-06
  .647E-06  .590E-06  .439E-06  .391E-06
END of PSCTR-controll parameters
 local part
 62.3609576231044684
   .92374799E+02   .92365756E+02   .92338687E+02   .92293593E+02   .92230505E+02
   .92149469E+02   .92050540E+02   .91933786E+02   .91799287E+02   .91647136E+02
   .91477434E+02   .91290294E+02   .91085841E+02   .90864209E+02   .90625540E+02
   .90369988E+02   .90097716E+02   .89808894E+02   .89503704E+02   .89182335E+02
   .88844983E+02   .88491856E+02   .88123168E+02   .87739140E+02   .87340005E+02
   .86926001E+02   .86497374E+02   .86054380E+02   .85597280E+02   .85126344E+02
   .84641848E+02   .84144076E+02   .83633319E+02   .83109872E+02   .82574039E+02
   .82026129E+02   .81466455E+02   .80895336E+02   .80313095E+02   .79720062E+02
   .79116568E+02   .78502949E+02   .77879544E+02   .77246696E+02   .76604750E+02
   .75954055E+02   .75294960E+02   .74627819E+02   .73952986E+02   .73270818E+02
   .72581672E+02   .71885908E+02   .71183886E+02   .70475967E+02   .69762514E+02
   .69043888E+02   .68320454E+02   .67592573E+02   .66860608E+02   .66124922E+02
   .65385877E+02   .64643832E+02   .63899147E+02   .63152181E+02   .62403290E+02
   .61652829E+02   .60901150E+02   .60148604E+02   .59395538E+02   .58642298E+02
   .57889226E+02   .57136662E+02   .56384940E+02   .55634393E+02   .54885350E+02
   .54138135E+02   .53393069E+02   .52650467E+02   .51910640E+02   .51173894E+02
   .50440531E+02   .49710846E+02   .48985128E+02   .48263661E+02   .47546723E+02
   .46834584E+02   .46127508E+02   .45425752E+02   .44729565E+02   .44039189E+02
   .43354859E+02   .42676798E+02   .42005226E+02   .41340350E+02   .40682371E+02
   .40031480E+02   .39387859E+02   .38751679E+02   .38123105E+02   .37502288E+02
   .36889373E+02   .36284493E+02   .35687771E+02   .35099320E+02   .34519243E+02
   .33947634E+02   .33384573E+02   .32830132E+02   .32284373E+02   .31747347E+02
   .31219093E+02   .30699643E+02   .30189015E+02   .29687220E+02   .29194258E+02
   .28710117E+02   .28234780E+02   .27768216E+02   .27310388E+02   .26861248E+02
   .26420740E+02   .25988800E+02   .25565357E+02   .25150329E+02   .24743631E+02
   .24345168E+02   .23954838E+02   .23572535E+02   .23198147E+02   .22831554E+02
   .22472633E+02   .22121258E+02   .21777295E+02   .21440610E+02   .21111063E+02
   .20788513E+02   .20472816E+02   .20163826E+02   .19861396E+02   .19565378E+02
   .19275622E+02   .18991981E+02   .18714304E+02   .18442445E+02   .18176257E+02
   .17915593E+02   .17660310E+02   .17410267E+02   .17165324E+02   .16925345E+02
   .16690196E+02   .16459748E+02   .16233872E+02   .16012445E+02   .15795349E+02
   .15582468E+02   .15373689E+02   .15168906E+02   .14968016E+02   .14770918E+02
   .14577520E+02   .14387731E+02   .14201464E+02   .14018637E+02   .13839174E+02
   .13663001E+02   .13490048E+02   .13320249E+02   .13153543E+02   .12989871E+02
   .12829179E+02   .12671414E+02   .12516527E+02   .12364473E+02   .12215208E+02
   .12068690E+02   .11924880E+02   .11783742E+02   .11645239E+02   .11509337E+02
   .11376002E+02   .11245202E+02   .11116905E+02   .10991080E+02   .10867696E+02
   .10746720E+02   .10628123E+02   .10511871E+02   .10397932E+02   .10286274E+02
   .10176862E+02   .10069661E+02   .99646357E+01   .98617476E+01   .97609583E+01
   .96622280E+01   .95655149E+01   .94707761E+01   .93779673E+01   .92870425E+01
   .91979544E+01   .91106541E+01   .90250918E+01   .89412159E+01   .88589740E+01
   .87783124E+01   .86991766E+01   .86215112E+01   .85452603E+01   .84703671E+01
   .83967749E+01   .83244265E+01   .82532649E+01   .81832331E+01   .81142745E+01
   .80463332E+01   .79793539E+01   .79132822E+01   .78480651E+01   .77836505E+01
   .77199880E+01   .76570288E+01   .75947260E+01   .75330346E+01   .74719116E+01
   .74113165E+01   .73512111E+01   .72915596E+01   .72323289E+01   .71734888E+01
   .71150115E+01   .70568724E+01   .69990495E+01   .69415240E+01   .68842798E+01
   .68273039E+01   .67705860E+01   .67141190E+01   .66578984E+01   .66019224E+01
   .65461920E+01   .64907109E+01   .64354849E+01   .63805226E+01   .63258343E+01
   .62714328E+01   .62173326E+01   .61635499E+01   .61101026E+01   .60570098E+01
   .60042920E+01   .59519705E+01   .59000677E+01   .58486062E+01   .57976094E+01
   .57471007E+01   .56971036E+01   .56476415E+01   .55987372E+01   .55504132E+01
   .55026911E+01   .54555918E+01   .54091349E+01   .53633389E+01   .53182209E+01
   .52737965E+01   .52300797E+01   .51870828E+01   .51448161E+01   .51032881E+01
   .50625052E+01   .50224720E+01   .49831908E+01   .49446618E+01   .49068831E+01
   .48698508E+01   .48335587E+01   .47979986E+01   .47631605E+01   .47290321E+01
   .46955993E+01   .46628463E+01   .46307555E+01   .45993076E+01   .45684819E+01
   .45382563E+01   .45086074E+01   .44795106E+01   .44509406E+01   .44228710E+01
   .43952747E+01   .43681242E+01   .43413917E+01   .43150489E+01   .42890678E+01
   .42634202E+01   .42380783E+01   .42130148E+01   .41882028E+01   .41636161E+01
   .41392294E+01   .41150185E+01   .40909599E+01   .40670318E+01   .40432132E+01
   .40194849E+01   .39958289E+01   .39722289E+01   .39486702E+01   .39251396E+01
   .39016259E+01   .38781194E+01   .38546120E+01   .38310978E+01   .38075722E+01
   .37840325E+01   .37604778E+01   .37369086E+01   .37133272E+01   .36897374E+01
   .36661445E+01   .36425552E+01   .36189774E+01   .35954204E+01   .35718946E+01
   .35484113E+01   .35249829E+01   .35016224E+01   .34783437E+01   .34551611E+01
   .34320894E+01   .34091437E+01   .33863394E+01   .33636917E+01   .33412160E+01
   .33189275E+01   .32968410E+01   .32749710E+01   .32533315E+01   .32319357E+01
   .32107965E+01   .31899255E+01   .31693339E+01   .31490316E+01   .31290277E+01
   .31093301E+01   .30899458E+01   .30708803E+01   .30521380E+01   .30337223E+01
   .30156351E+01   .29978771E+01   .29804479E+01   .29633455E+01   .29465670E+01
   .29301083E+01   .29139639E+01   .28981272E+01   .28825907E+01   .28673458E+01
   .28523829E+01   .28376915E+01   .28232602E+01   .28090770E+01   .27951291E+01
   .27814033E+01   .27678857E+01   .27545622E+01   .27414182E+01   .27284390E+01
   .27156096E+01   .27029153E+01   .26903412E+01   .26778726E+01   .26654949E+01
   .26531942E+01   .26409565E+01   .26287687E+01   .26166180E+01   .26044923E+01
   .25923802E+01   .25802711E+01   .25681549E+01   .25560227E+01   .25438663E+01
   .25316786E+01   .25194531E+01   .25071847E+01   .24948690E+01   .24825027E+01
   .24700835E+01   .24576102E+01   .24450823E+01   .24325008E+01   .24198670E+01
   .24071837E+01   .23944543E+01   .23816831E+01   .23688753E+01   .23560367E+01
   .23431740E+01   .23302944E+01   .23174058E+01   .23045166E+01   .22916356E+01
   .22787722E+01   .22659360E+01   .22531369E+01   .22403849E+01   .22276903E+01
   .22150633E+01   .22025144E+01   .21900536E+01   .21776910E+01   .21654365E+01
   .21532997E+01   .21412899E+01   .21294160E+01   .21176864E+01   .21061090E+01
   .20946914E+01   .20834402E+01   .20723619E+01   .20614618E+01   .20507449E+01
   .20402154E+01   .20298767E+01   .20197315E+01   .20097816E+01   .20000284E+01
   .19904720E+01   .19811123E+01   .19719480E+01   .19629772E+01   .19541974E+01
   .19456053E+01   .19371967E+01   .19289671E+01   .19209112E+01   .19130229E+01
   .19052960E+01   .18977234E+01   .18902976E+01   .18830108E+01   .18758547E+01
   .18688205E+01   .18618995E+01   .18550824E+01   .18483598E+01   .18417223E+01
   .18351603E+01   .18286641E+01   .18222241E+01   .18158307E+01   .18094746E+01
   .18031463E+01   .17968369E+01   .17905374E+01   .17842395E+01   .17779348E+01
   .17716157E+01   .17652746E+01   .17589046E+01   .17524994E+01   .17460528E+01
   .17395594E+01   .17330144E+01   .17264134E+01   .17197527E+01   .17130292E+01
   .17062402E+01   .16993839E+01   .16924590E+01   .16854648E+01   .16784011E+01
   .16712685E+01   .16640681E+01   .16568016E+01   .16494713E+01   .16420799E+01
   .16346309E+01   .16271280E+01   .16195756E+01   .16119784E+01   .16043417E+01
   .15966710E+01   .15889723E+01   .15812518E+01   .15735161E+01   .15657719E+01
   .15580263E+01   .15502865E+01   .15425596E+01   .15348531E+01   .15271744E+01
   .15195309E+01   .15119301E+01   .15043792E+01   .14968856E+01   .14894562E+01
   .14820979E+01   .14748176E+01   .14676215E+01   .14605159E+01   .14535065E+01
   .14465988E+01   .14397981E+01   .14331089E+01   .14265355E+01   .14200819E+01
   .14137515E+01   .14075470E+01   .14014710E+01   .13955253E+01   .13897114E+01
   .13840301E+01   .13784818E+01   .13730664E+01   .13677830E+01   .13626306E+01
   .13576074E+01   .13527112E+01   .13479393E+01   .13432885E+01   .13387553E+01
   .13343355E+01   .13300246E+01   .13258179E+01   .13217100E+01   .13176955E+01
   .13137684E+01   .13099226E+01   .13061516E+01   .13024489E+01   .12988076E+01
   .12952209E+01   .12916816E+01   .12881825E+01   .12847166E+01   .12812767E+01
   .12778556E+01   .12744462E+01   .12710415E+01   .12676349E+01   .12642195E+01
   .12607890E+01   .12573372E+01   .12538582E+01   .12503464E+01   .12467965E+01
   .12432036E+01   .12395631E+01   .12358710E+01   .12321235E+01   .12283173E+01
   .12244497E+01   .12205184E+01   .12165213E+01   .12124573E+01   .12083253E+01
   .12041250E+01   .11998564E+01   .11955203E+01   .11911176E+01   .11866498E+01
   .11821191E+01   .11775278E+01   .11728789E+01   .11681757E+01   .11634218E+01
   .11586214E+01   .11537790E+01   .11488992E+01   .11439872E+01   .11390482E+01
   .11340879E+01   .11291120E+01   .11241263E+01   .11191371E+01   .11141504E+01
   .11091724E+01   .11042094E+01   .10992677E+01   .10943533E+01   .10894725E+01
   .10846312E+01   .10798352E+01   .10750903E+01   .10704018E+01   .10657750E+01
   .10612148E+01   .10567259E+01   .10523126E+01   .10479788E+01   .10437281E+01
   .10395638E+01   .10354887E+01   .10315051E+01   .10276150E+01   .10238199E+01
   .10201209E+01   .10165185E+01   .10130130E+01   .10096040E+01   .10062907E+01
   .10030721E+01   .99994636E+00   .99691153E+00   .99396512E+00   .99110428E+00
   .98832578E+00   .98562602E+00   .98300110E+00   .98044679E+00   .97795859E+00
   .97553174E+00   .97316126E+00   .97084199E+00   .96856857E+00   .96633554E+00
   .96413733E+00   .96196830E+00   .95982278E+00   .95769508E+00   .95557957E+00
   .95347067E+00   .95136287E+00   .94925083E+00   .94712933E+00   .94499335E+00
   .94283809E+00   .94065896E+00   .93845166E+00   .93621217E+00   .93393677E+00
   .93162209E+00   .92926508E+00   .92686305E+00   .92441369E+00   .92191508E+00
   .91936566E+00   .91676429E+00   .91411022E+00   .91140308E+00   .90864292E+00
   .90583017E+00   .90296563E+00   .90005050E+00   .89708633E+00   .89407502E+00
   .89101880E+00   .88792023E+00   .88478218E+00   .88160778E+00   .87840042E+00
   .87516374E+00   .87190158E+00   .86861798E+00   .86531712E+00   .86200333E+00
   .85868103E+00   .85535474E+00   .85202900E+00   .84870839E+00   .84539747E+00
   .84210077E+00   .83882276E+00   .83556781E+00   .83234017E+00   .82914397E+00
   .82598315E+00   .82286146E+00   .81978247E+00   .81674950E+00   .81376561E+00
   .81083363E+00   .80795608E+00   .80513520E+00   .80237295E+00   .79967094E+00
   .79703050E+00   .79445262E+00   .79193796E+00   .78948686E+00   .78709934E+00
   .78477510E+00   .78251349E+00   .78031359E+00   .77817416E+00   .77609366E+00
   .77407028E+00   .77210192E+00   .77018627E+00   .76832073E+00   .76650253E+00
   .76472867E+00   .76299598E+00   .76130113E+00   .75964065E+00   .75801097E+00
   .75640840E+00   .75482921E+00   .75326959E+00   .75172575E+00   .75019387E+00
   .74867016E+00   .74715087E+00   .74563232E+00   .74411093E+00   .74258321E+00
   .74104580E+00   .73949550E+00   .73792925E+00   .73634419E+00   .73473766E+00
   .73310717E+00   .73145049E+00   .72976560E+00   .72805075E+00   .72630439E+00
   .72452527E+00   .72271239E+00   .72086500E+00   .71898262E+00   .71706506E+00
   .71511237E+00   .71312486E+00   .71110311E+00   .70904795E+00   .70696043E+00
   .70484186E+00   .70269377E+00   .70051788E+00   .69831613E+00   .69609063E+00
   .69384368E+00   .69157770E+00   .68929529E+00   .68699914E+00   .68469206E+00
   .68237693E+00   .68005671E+00   .67773441E+00   .67541306E+00   .67309573E+00
   .67078544E+00   .66848524E+00   .66619809E+00   .66392691E+00   .66167457E+00
   .65944381E+00   .65723727E+00   .65505748E+00   .65290682E+00   .65078754E+00
   .64870170E+00   .64665120E+00   .64463776E+00   .64266289E+00   .64072792E+00
   .63883396E+00   .63698191E+00   .63517246E+00   .63340608E+00   .63168302E+00
   .63000330E+00   .62836673E+00   .62677293E+00   .62522126E+00   .62371092E+00
   .62224088E+00   .62080994E+00   .61941670E+00   .61805959E+00   .61673687E+00
   .61544667E+00   .61418693E+00   .61295552E+00   .61175014E+00   .61056842E+00
   .60940789E+00   .60826601E+00   .60714018E+00   .60602776E+00   .60492606E+00
   .60383241E+00   .60274413E+00   .60165855E+00   .60057305E+00   .59948504E+00
   .59839201E+00   .59729152E+00   .59618122E+00   .59505888E+00   .59392236E+00
   .59276966E+00   .59159893E+00   .59040846E+00   .58919667E+00   .58796220E+00
   .58670380E+00   .58542044E+00   .58411126E+00   .58277558E+00   .58141291E+00
   .58002295E+00   .57860560E+00   .57716093E+00   .57568921E+00   .57419091E+00
   .57266666E+00   .57111728E+00   .56954375E+00   .56794723E+00   .56632904E+00
   .56469063E+00   .56303361E+00   .56135970E+00   .55967076E+00   .55796875E+00
   .55625572E+00   .55453381E+00   .55280522E+00   .55107222E+00   .54933711E+00
   .54760223E+00   .54586993E+00   .54414256E+00   .54242246E+00   .54071195E+00
   .53901330E+00   .53732874E+00   .53566041E+00   .53401042E+00   .53238075E+00
   .53077329E+00   .52918983E+00   .52763203E+00   .52610143E+00   .52459943E+00
   .52312726E+00   .52168604E+00   .52027671E+00   .51890003E+00   .51755662E+00
   .51624691E+00   .51497117E+00   .51372950E+00   .51252181E+00   .51134785E+00
   .51020719E+00   .50909924E+00   .50802325E+00   .50697831E+00   .50596335E+00
   .50497716E+00   .50401840E+00   .50308560E+00   .50217716E+00   .50129138E+00
   .50042646E+00   .49958051E+00   .49875155E+00   .49793756E+00   .49713646E+00
   .49634610E+00   .49556434E+00   .49478901E+00   .49401793E+00   .49324893E+00
   .49247988E+00   .49170865E+00   .49093318E+00   .49015148E+00   .48936159E+00
   .48856168E+00   .48774997E+00   .48692480E+00   .48608463E+00   .48522801E+00
   .48435365E+00   .48346038E+00   .48254715E+00   .48161310E+00   .48065749E+00
   .47967973E+00   .47867941E+00   .47765624E+00   .47661013E+00   .47554113E+00
   .47444942E+00   .47333539E+00   .47219952E+00   .47104247E+00   .46986505E+00
   .46866819E+00   .46745294E+00   .46622049E+00   .46497215E+00   .46370931E+00
   .46243349E+00   .46114628E+00   .45984934E+00   .45854441E+00   .45723329E+00
   .45591782E+00   .45459986E+00   .45328131E+00   .45196409E+00   .45065008E+00
   .44934119E+00   .44803927E+00   .44674616E+00   .44546365E+00   .44419345E+00
   .44293723E+00   .44169657E+00   .44047296E+00   .43926781E+00   .43808242E+00
   .43691796E+00   .43577553E+00   .43465606E+00   .43356038E+00   .43248919E+00
   .43144304E+00   .43042236E+00   .42942744E+00   .42845842E+00   .42751531E+00
   .42659798E+00   .42570616E+00   .42483946E+00   .42399733E+00   .42317913E+00
   .42238407E+00   .42161126E+00   .42085969E+00   .42012825E+00   .41941573E+00
   .41872084E+00   .41804221E+00   .41737840E+00   .41672790E+00   .41608916E+00
   .41546059E+00   .41484056E+00   .41422742E+00   .41361951E+00   .41301519E+00
   .41241279E+00   .41181071E+00   .41120733E+00   .41060109E+00   .40999050E+00
   .40937408E+00   .40875045E+00   .40811829E+00   .40747637E+00   .40682353E+00
   .40615872E+00   .40548097E+00   .40478942E+00   .40408334E+00   .40336208E+00
   .40262512E+00   .40187206E+00   .40110262E+00   .40031661E+00   .39951400E+00
   .39869486E+00   .39785937E+00   .39700783E+00   .39614067E+00   .39525839E+00
   .39436163E+00   .39345111E+00   .39252765E+00   .39159215E+00   .39064560E+00
   .38968905E+00   .38872363E+00   .38775053E+00   .38677098E+00   .38578625E+00
   .38479767E+00   .38380656E+00   .38281429E+00   .38182223E+00   .38083173E+00
   .37984415E+00   .37886085E+00   .37788314E+00   .37691230E+00   .37594959E+00
   .37499620E+00   .37405328E+00   .37312192E+00   .37220313E+00   .37129786E+00
 gradient corrections used for XC
 5
 core charge-density (partial)
   .99274200E+00   .99239489E+00   .99135428E+00   .98962230E+00   .98720247E+00
   .98409974E+00   .98032042E+00   .97587219E+00   .97076403E+00   .96500627E+00
   .95861047E+00   .95158942E+00   .94395710E+00   .93572863E+00   .92692019E+00
   .91754902E+00   .90763331E+00   .89719217E+00   .88624557E+00   .87481424E+00
   .86291967E+00   .85058397E+00   .83782985E+00   .82468053E+00   .81115967E+00
   .79729133E+00   .78309983E+00   .76860977E+00   .75384588E+00   .73883301E+00
   .72359601E+00   .70815972E+00   .69254887E+00   .67678802E+00   .66090151E+00
   .64491338E+00   .62884736E+00   .61272676E+00   .59657446E+00   .58041286E+00
   .56426378E+00   .54814852E+00   .53208771E+00   .51610137E+00   .50020879E+00
   .48442859E+00   .46877862E+00   .45327596E+00   .43793693E+00   .42277703E+00
   .40781095E+00   .39305255E+00   .37851486E+00   .36421007E+00   .35014952E+00
   .33634373E+00   .32280235E+00   .30953422E+00   .29654734E+00   .28384891E+00
   .27144531E+00   .25934214E+00   .24754422E+00   .23605561E+00   .22487963E+00
   .21401889E+00   .20347530E+00   .19325010E+00   .18334386E+00   .17375654E+00
   .16448750E+00   .15553552E+00   .14689883E+00   .13857515E+00   .13056169E+00
   .12285521E+00   .11545201E+00   .10834800E+00   .10153871E+00   .95019283E-01
   .88784563E-01   .82829082E-01   .77147095E-01   .71732609E-01   .66579409E-01
   .61681078E-01   .57031027E-01   .52622514E-01   .48448670E-01   .44502522E-01
   .40777009E-01   .37265011E-01   .33959360E-01   .30852867E-01   .27938333E-01
   .25208571E-01   .22656422E-01   .20274768E-01   .18056549E-01   .15994776E-01
   .14082541E-01   .12313034E-01   .10679553E-01   .91755080E-02   .77944399E-02
   .65300219E-02   .53760705E-02   .43265515E-02   .33755863E-02   .25174575E-02
   .17466134E-02   .10576723E-02   .44542564E-03  -.95159417E-04  -.56893763E-03
  -.98058436E-03  -.13345947E-02  -.16352829E-02  -.18867828E-02  -.20930484E-02
  -.22578546E-02  -.23847992E-02  -.24773046E-02  -.25386200E-02  -.25718242E-02
  -.25798285E-02  -.25653798E-02  -.25310645E-02  -.24793119E-02  -.24123982E-02
  -.23324510E-02  -.22414533E-02  -.21412481E-02  -.20335432E-02  -.19199156E-02
  -.18018166E-02  -.16805765E-02  -.15574096E-02  -.14334193E-02  -.13096028E-02
  -.11868562E-02  -.10659796E-02  -.94768166E-03  -.83258495E-03  -.72123041E-03
  -.61408225E-03  -.51153263E-03  -.41390621E-03  -.32146468E-03  -.23441110E-03
  -.15289422E-03  -.77012622E-04  -.68187271E-05   .57677289E-04   .11650374E-03
   .16972380E-03   .21743203E-03   .25975104E-03   .29682830E-03   .32883311E-03
   .35595365E-03   .37839434E-03   .39637313E-03   .41011915E-03   .41987034E-03
   .42587133E-03   .42837142E-03   .42762269E-03   .42387829E-03   .41739085E-03
   .40841097E-03   .39718592E-03   .38395840E-03   .36896549E-03   .35243760E-03
   .33459767E-03   .31566041E-03   .29583157E-03   .27530750E-03   .25427459E-03
   .23290894E-03   .21137608E-03   .18983073E-03   .16841671E-03   .14726682E-03
   .12650288E-03   .10623579E-03   .86565612E-04   .67581790E-04   .49363321E-04
   .31979034E-04   .15487877E-04  -.60748373E-07  -.14626631E-04  -.28178365E-04
  -.40692940E-04  -.52155317E-04  -.62557983E-04  -.71900503E-04  -.80189050E-04
  -.87435942E-04  -.93659168E-04  -.98881914E-04  -.10313210E-03  -.10644189E-03
  -.10884727E-03  -.11038757E-03  -.11110502E-03  -.11104433E-03  -.11025229E-03
  -.10877733E-03  -.10666915E-03  -.10397837E-03  -.10075617E-03  -.97053911E-04
  -.92922900E-04  -.88414032E-04  -.83577545E-04  -.78462755E-04  -.73117824E-04
  -.67589548E-04  -.61923160E-04  -.56162156E-04  -.50348142E-04  -.44520703E-04
  -.38717279E-04  -.32973076E-04  -.27320981E-04  -.21791504E-04  -.16412732E-04
  -.11210300E-04  -.62073766E-05  -.14246654E-05   .31195802E-05   .74095299E-05
   .11431738E-04   .15175090E-04   .18630746E-04   .21792068E-04   .24654540E-04
   .27215687E-04   .29474974E-04   .31433714E-04   .33094960E-04   .34463400E-04
   .35545241E-04   .36348098E-04   .36880875E-04   .37153651E-04   .37177558E-04
   .36964666E-04   .36527864E-04   .35880745E-04   .35037493E-04   .34012767E-04
   .32821600E-04   .31479287E-04   .30001286E-04   .28403121E-04   .26700289E-04
   .24908170E-04   .23041944E-04   .21116515E-04   .19146435E-04   .17145839E-04
   .15128381E-04   .13107179E-04   .11094764E-04   .91030356E-05   .71432208E-05
   .52258425E-05   .33606901E-05   .15567971E-05  -.17757688E-06  -.18349579E-05
  -.34086657E-05  -.48928159E-05  -.62823183E-05  -.75728705E-05  -.87609476E-05
  -.98437879E-05  -.10819375E-04  -.11686415E-04  -.12444317E-04  -.13093158E-04
  -.13633660E-04  -.14067154E-04  -.14395549E-04  -.14621293E-04  -.14747337E-04
  -.14777095E-04  -.14714408E-04  -.14563501E-04  -.14328942E-04  -.14015604E-04
  -.13628620E-04  -.13173346E-04  -.12655320E-04  -.12080222E-04  -.11453834E-04
  -.10782006E-04  -.10070617E-04  -.93255396E-05  -.85526081E-05  -.77575855E-05
  -.69461333E-05  -.61237832E-05  -.52959102E-05  -.44677082E-05  -.36441672E-05
  -.28300527E-05  -.20298870E-05  -.12479332E-05  -.48818067E-06   .24566743E-06
   .95020388E-06   .16223256E-05   .22592399E-05   .28584681E-05   .34178481E-05
   .39355344E-05   .44099967E-05   .48400166E-05   .52246826E-05   .55633842E-05
   .58558035E-05   .61019061E-05   .63019308E-05   .64563780E-05   .65659971E-05
   .66317725E-05   .66549099E-05   .66368206E-05   .65791062E-05   .64835421E-05
   .63520611E-05   .61867368E-05   .59897659E-05   .57634516E-05   .55101865E-05
   .52324355E-05   .49327188E-05   .46135958E-05   .42776490E-05   .39274680E-05
   .35656344E-05   .31947077E-05   .28172107E-05   .24356167E-05   .20523370E-05
   .16697090E-05   .12899855E-05   .91532460E-06   .54778055E-06   .18929560E-06
  -.15830741E-06  -.49333135E-06  -.81421035E-06  -.11195143E-05  -.14079523E-05
  -.16783758E-05  -.19297798E-05  -.21613044E-05  -.23722344E-05  -.25619988E-05
  -.27301691E-05  -.28764575E-05  -.30007131E-05  -.31029189E-05  -.31831871E-05
  -.32417547E-05  -.32789771E-05  -.32953234E-05  -.32913688E-05  -.32677889E-05
  -.32253517E-05  -.31649107E-05  -.30873971E-05  -.29938120E-05  -.28852182E-05
  -.27627323E-05  -.26275166E-05  -.24807708E-05  -.23237240E-05  -.21576267E-05
  -.19837430E-05  -.18033426E-05  -.16176940E-05  -.14280563E-05  -.12356731E-05
  -.10417654E-05  -.84752528E-06  -.65411008E-06  -.46263679E-06  -.27417680E-06
  -.89751225E-07   .89673502E-07   .26318946E-06   .42995073E-06   .58917630E-06
   .74015267E-06   .88223588E-06   .10148531E-05   .11375037E-05   .12497603E-05
   .13512686E-05   .14417474E-05   .15209883E-05   .15888542E-05   .16452785E-05
   .16902632E-05   .17238767E-05   .17462516E-05   .17575823E-05   .17581216E-05
   .17481778E-05   .17281114E-05   .16983312E-05   .16592910E-05   .16114853E-05
   .15554455E-05   .14917354E-05   .14209478E-05   .13436995E-05   .12606274E-05
   .11723843E-05   .10796346E-05   .98305001E-06   .88330591E-06   .78107695E-06
   .67703333E-06   .57183711E-06   .46613859E-06   .36057291E-06   .25575680E-06
   .15228557E-06   .50730283E-07  -.48364886E-07  -.14448501E-06  -.23714660E-06
  -.32589945E-06  -.41032842E-06  -.49005477E-06  -.56473740E-06  -.63407375E-06
  -.69780053E-06  -.75569415E-06  -.80757094E-06  -.85328711E-06  -.89273854E-06
  -.92586027E-06  -.95262588E-06  -.97304654E-06  -.98717003E-06  -.99507940E-06
  -.99689164E-06  -.99275605E-06  -.98285254E-06  -.96738983E-06  -.94660342E-06
  -.92075360E-06  -.89012325E-06  -.85501568E-06  -.81575230E-06  -.77267033E-06
  -.72612044E-06  -.67646439E-06  -.62407265E-06  -.56932209E-06  -.51259359E-06
  -.45426977E-06  -.39473275E-06  -.33436197E-06  -.27353207E-06  -.21261084E-06
  -.15195732E-06  -.91919907E-07  -.32834674E-07   .24976299E-07   .81206395E-07
   .13556585E-06   .18778298E-06   .23760532E-06   .28480056E-06   .32915740E-06
   .37048625E-06   .40861976E-06   .44341324E-06   .47474495E-06   .50251620E-06
   .52665139E-06   .54709785E-06   .56382557E-06   .57682687E-06   .58611584E-06
   .59172777E-06   .59371842E-06   .59216319E-06   .58715624E-06   .57880946E-06
   .56725143E-06   .55262626E-06   .53509241E-06   .51482140E-06   .49199656E-06
   .46681164E-06   .43946950E-06   .41018070E-06   .37916208E-06   .34663544E-06
   .31282607E-06   .27796142E-06   .24226972E-06   .20597866E-06   .16931408E-06
   .13249875E-06   .95751106E-07   .59284139E-07   .23304281E-07  -.11989629E-07
  -.46407312E-07  -.79767946E-07  -.11190099E-06  -.14264691E-06  -.17185787E-06
  -.19939831E-06  -.22514541E-06  -.24898957E-06  -.27083466E-06  -.29059834E-06
  -.30821217E-06  -.32362171E-06  -.33678651E-06  -.34768004E-06  -.35628951E-06
  -.36261564E-06  -.36667238E-06  -.36848647E-06  -.36809708E-06  -.36555525E-06
  -.36092335E-06  -.35427448E-06  -.34569178E-06  -.33526779E-06  -.32310363E-06
  -.30930831E-06  -.29399787E-06  -.27729458E-06  -.25932611E-06  -.24022467E-06
  -.22012614E-06  -.19916922E-06  -.17749459E-06  -.15524401E-06  -.13255952E-06
  -.10958262E-06  -.86453447E-07  -.63309996E-07  -.40287401E-07  -.17517195E-07
   .48733576E-08   .26761906E-07   .48031611E-07   .68571695E-07   .88277955E-07
   .10705322E-06   .12480776E-06   .14145964E-06   .15693503E-06   .17116848E-06
   .18410307E-06   .19569060E-06   .20589167E-06   .21467574E-06   .22202107E-06
   .22791472E-06   .23235241E-06   .23533838E-06   .23688516E-06   .23701336E-06
   .23575138E-06   .23313505E-06   .22920731E-06   .22401783E-06   .21762252E-06
   .21008314E-06   .20146681E-06   .19184552E-06   .18129559E-06   .16989717E-06
   .15773369E-06   .14489132E-06   .13145844E-06   .11752501E-06   .10318213E-06
   .88521406E-07   .73634457E-07   .58612375E-07   .43545215E-07   .28521493E-07
   .13627717E-07  -.10520796E-08  -.15436766E-07  -.29448524E-07  -.43013232E-07
  -.56060813E-07  -.68525564E-07  -.80346440E-07  -.91467321E-07  -.10183723E-06
  -.11141054E-06  -.12014709E-06  -.12801239E-06  -.13497761E-06  -.14101970E-06
  -.14612141E-06  -.15027124E-06  -.15346342E-06  -.15569783E-06  -.15697989E-06
  -.15732040E-06  -.15673543E-06  -.15524606E-06  -.15287821E-06  -.14966239E-06
  -.14563339E-06  -.14083009E-06  -.13529506E-06  -.12907432E-06  -.12221697E-06
  -.11477485E-06  -.10680222E-06  -.98355371E-07  -.89492268E-07  -.80272203E-07
  -.70755412E-07  -.61002718E-07  -.51075168E-07  -.41033680E-07  -.30938694E-07
  -.20849832E-07  -.10825574E-07  -.92294052E-09   .88028080E-08   .18298455E-07
   .27513097E-07   .36398394E-07   .44908797E-07   .53001761E-07   .60637936E-07
   .67781331E-07   .74399459E-07   .80463464E-07   .85948217E-07   .90832392E-07
   .95098522E-07   .98733028E-07   .10172622E-06   .10407231E-06   .10576932E-06
   .10681908E-06   .10722712E-06   .10700258E-06   .10615809E-06   .10470963E-06
   .10267639E-06   .10008060E-06   .96947316E-07   .93304287E-07   .89181692E-07
   .84611950E-07   .79629490E-07   .74270512E-07   .68572752E-07   .62575238E-07
   .56318040E-07   .49842025E-07   .43188602E-07   .36399483E-07   .29516431E-07
   .22581019E-07   .15634399E-07   .87170698E-08   .18686556E-08  -.48723066E-08
  -.11468569E-07  -.17884366E-07  -.24085591E-07  -.30039970E-07  -.35717207E-07
  -.41089132E-07  -.46129822E-07  -.50815712E-07  -.55125690E-07  -.59041178E-07
  -.62546192E-07  -.65627394E-07  -.68274118E-07  -.70478392E-07  -.72234932E-07
  -.73541132E-07  -.74397030E-07  -.74805261E-07  -.74771007E-07  -.74301911E-07
  -.73408004E-07  -.72101598E-07  -.70397181E-07  -.68311299E-07  -.65862420E-07
  -.63070802E-07  -.59958343E-07  -.56548427E-07  -.52865769E-07  -.48936247E-07
  -.44786734E-07  -.40444929E-07  -.35939182E-07  -.31298321E-07  -.26551479E-07
  -.21727919E-07  -.16856867E-07  -.11967342E-07  -.70879947E-08  -.22469448E-08
   .25283674E-08   .72113305E-08   .11776300E-07   .16198732E-07   .20455304E-07
   .24524030E-07   .28384366E-07   .32017305E-07   .35405460E-07   .38533137E-07
   .41386401E-07   .43953126E-07   .46223035E-07   .48187730E-07   .49840709E-07
   .51177377E-07   .52195037E-07   .52892876E-07   .53271941E-07   .53335106E-07
   .53087019E-07   .52534053E-07   .51684240E-07   .50547199E-07   .49134056E-07
   .47457353E-07   .45530956E-07   .43369957E-07   .40990563E-07   .38409986E-07
   .35646331E-07   .32718476E-07   .29645952E-07   .26448818E-07   .23147543E-07
   .19762873E-07   .16315718E-07   .12827019E-07   .93176349E-08   .58082195E-08
   .23191069E-08  -.11298004E-08  -.45191391E-08  -.78301885E-08  -.11044968E-07
  -.14146330E-07  -.17118045E-07  -.19944879E-07  -.22612671E-07  -.25108392E-07
  -.27420206E-07  -.29537521E-07  -.31451028E-07  -.33152735E-07  -.34635997E-07
  -.35895529E-07  -.36927418E-07  -.37729125E-07  -.38299477E-07  -.38638657E-07
  -.38748176E-07  -.38630851E-07  -.38290765E-07  -.37733226E-07  -.36964719E-07
  -.35992847E-07  -.34826276E-07  -.33474665E-07  -.31948598E-07  -.30259508E-07
  -.28419598E-07  -.26441763E-07  -.24339500E-07  -.22126827E-07  -.19818190E-07
  -.17428375E-07  -.14972420E-07  -.12465522E-07  -.99229494E-08  -.73599509E-08
  -.47916696E-08  -.22330569E-08   .30121050E-09   .27968114E-08   .52398568E-08
   .76169641E-08   .99153260E-08   .12122777E-07   .14227851E-07   .16219843E-07
   .18088853E-07   .19825836E-07   .21422639E-07   .22872036E-07   .24167757E-07
   .25304509E-07   .26277992E-07   .27084913E-07   .27722984E-07   .28190927E-07
   .28488464E-07   .28616305E-07   .28576128E-07   .28370559E-07   .28003140E-07
   .27478296E-07   .26801300E-07   .25978228E-07   .25015912E-07   .23921891E-07
   .22704360E-07   .21372108E-07   .19934466E-07   .18401238E-07   .16782644E-07
   .15089252E-07   .13331917E-07   .11521705E-07   .96698374E-08   .77876167E-08
   .58863632E-08   .39773494E-08   .20717353E-08   .18050593E-09  -.16855891E-08
  -.35160948E-08  -.53009064E-08  -.70303229E-08  -.86950972E-08  -.10286483E-07
  -.11796279E-07  -.13216867E-07  -.14541248E-07  -.15763077E-07  -.16876686E-07
  -.17877110E-07  -.18760105E-07  -.19522165E-07  -.20160526E-07  -.20673180E-07
  -.21058870E-07  -.21317088E-07  -.21448071E-07  -.21452786E-07  -.21332916E-07
  -.21090840E-07  -.20729610E-07  -.20252927E-07  -.19665104E-07  -.18971042E-07
  -.18176186E-07  -.17286491E-07  -.16308380E-07  -.15248699E-07  -.14114672E-07
  -.12913859E-07  -.11654102E-07  -.10343478E-07  -.89902501E-08  -.76028190E-08
  -.61896691E-08  -.47593212E-08  -.33202822E-08  -.18809960E-08  -.44979638E-09
   .96514001E-09   .23558385E-08   .37145695E-08   .50338900E-08   .63066827E-08
   .75261921E-08   .86860595E-08   .97803537E-08   .10803600E-07   .11750805E-07
   .12617481E-07   .13399661E-07   .14093921E-07   .14697386E-07   .15207746E-07
   .15623254E-07   .15942738E-07   .16165592E-07   .16291777E-07   .16321813E-07
   .16256768E-07   .16098243E-07   .15848362E-07   .15509745E-07   .15085493E-07
   .14579161E-07   .13994732E-07   .13336587E-07   .12609480E-07   .11818499E-07
   .10969037E-07   .10066756E-07   .91175497E-08   .81275085E-08   .71028803E-08
   .60500338E-08   .49754193E-08   .38855311E-08   .27868693E-08   .16859024E-08
   .58903042E-09  -.49745101E-09  -.15673858E-08  -.26147908E-08  -.36338884E-08
  -.46191368E-08  -.55652596E-08  -.64672719E-08  -.73205065E-08  -.81206357E-08
  -.88636928E-08  -.95460898E-08  -.10164634E-07  -.10716541E-07  -.11199445E-07
  -.11611409E-07  -.11950930E-07  -.12216940E-07  -.12408810E-07  -.12526345E-07
  -.12569785E-07  -.12539792E-07  -.12437444E-07  -.12264224E-07  -.12022006E-07
  -.11713038E-07  -.11339928E-07  -.10905620E-07  -.10413377E-07  -.98667538E-08
  -.92695792E-08  -.86259246E-08  -.79400809E-08  -.72165299E-08  -.64599168E-08
  -.56750209E-08  -.48667268E-08  -.40399948E-08  -.31998315E-08  -.23512606E-08
  -.14992932E-08  -.64889966E-09   .19501881E-09   .10276575E-08   .18443348E-08
   .26405175E-08   .34118451E-08   .41541532E-08   .48634947E-08   .55361603E-08
   .61686967E-08   .67579235E-08   .73009485E-08   .77951806E-08   .82383414E-08
   .86284743E-08   .89639523E-08   .92434831E-08   .94661127E-08   .96312272E-08
   .97385516E-08   .97881481E-08   .97804113E-08   .97160620E-08   .95961396E-08
   .94219919E-08   .91952639E-08   .89178849E-08   .85920539E-08   .82202237E-08
 atomic pseudo charge-density
   .80000000E+01   .79911808E+01   .79648605E+01   .79214467E+01   .78616027E+01
   .77862250E+01   .76964132E+01   .75934342E+01   .74786829E+01   .73536409E+01
   .72198350E+01   .70787981E+01   .69320329E+01   .67809803E+01   .66269925E+01
   .64713129E+01   .63150602E+01   .61592198E+01   .60046387E+01   .58520262E+01
   .57019579E+01   .55548829E+01   .54111335E+01   .52709364E+01   .51344248E+01
   .50016515E+01   .48726012E+01   .47472029E+01   .46253413E+01   .45068676E+01
   .43916087E+01   .42793758E+01   .41699718E+01   .40631970E+01   .39588548E+01
   .38567553E+01   .37567186E+01   .36585775E+01   .35621788E+01   .34673847E+01
   .33740731E+01   .32821378E+01   .31914887E+01   .31020506E+01   .30137629E+01
   .29265788E+01   .28404639E+01   .27553956E+01   .26713614E+01   .25883584E+01
   .25063916E+01   .24254729E+01   .23456204E+01   .22668568E+01   .21892089E+01
   .21127062E+01   .20373807E+01   .19632654E+01   .18903944E+01   .18188015E+01
   .17485203E+01   .16795831E+01   .16120211E+01   .15458636E+01   .14811379E+01
   .14178690E+01   .13560795E+01   .12957893E+01   .12370155E+01   .11797726E+01
   .11240720E+01   .10699225E+01   .10173299E+01   .96629744E+00   .91682542E+00
   .86891161E+00   .82255119E+00   .77773691E+00   .73445917E+00   .69270612E+00
   .65246381E+00   .61371630E+00   .57644578E+00   .54063269E+00   .50625584E+00
   .47329254E+00   .44171875E+00   .41150911E+00   .38263716E+00   .35507536E+00
   .32879526E+00   .30376757E+00   .27996228E+00   .25734873E+00   .23589573E+00
   .21557162E+00   .19634439E+00   .17818172E+00   .16105107E+00   .14491978E+00
   .12975509E+00   .11552424E+00   .10219454E+00   .89733375E-01   .78108327E-01
   .67287185E-01   .57238006E-01   .47929161E-01   .39329381E-01   .31407795E-01
   .24133967E-01   .17477937E-01   .11410245E-01   .59019717E-02   .92475981E-03
  -.35491573E-02  -.75469323E-02  -.11095082E-01  -.14219469E-01  -.16945283E-01
  -.19297025E-01  -.21298496E-01  -.22972782E-01  -.24342248E-01  -.25428527E-01
  -.26252513E-01  -.26834361E-01  -.27193479E-01  -.27348527E-01  -.27317420E-01
  -.27117327E-01  -.26764674E-01  -.26275146E-01  -.25663698E-01  -.24944556E-01
  -.24131227E-01  -.23236506E-01  -.22272491E-01  -.21250587E-01  -.20181522E-01
  -.19075359E-01  -.17941509E-01  -.16788745E-01  -.15625220E-01  -.14458477E-01
  -.13295471E-01  -.12142584E-01  -.11005639E-01  -.98899247E-02  -.88002082E-02
  -.77407560E-02  -.67153527E-02  -.57273201E-02  -.47795369E-02  -.38744581E-02
  -.30141351E-02  -.22002351E-02  -.14340613E-02  -.71657274E-03  -.48403797E-04
   .57011590E-03   .11389421E-02   .16582964E-02   .21286476E-02   .25506924E-02
   .29253371E-02   .32536795E-02   .35369910E-02   .37766993E-02   .39743715E-02
   .41316973E-02   .42504735E-02   .43325883E-02   .43800061E-02   .43947537E-02
   .43789062E-02   .43345738E-02   .42638893E-02   .41689962E-02   .40520374E-02
   .39151443E-02   .37604273E-02   .35899657E-02   .34058000E-02   .32099227E-02
   .30042721E-02   .27907245E-02   .25710890E-02   .23471015E-02   .21204201E-02
   .18926209E-02   .16651942E-02   .14395421E-02   .12169754E-02   .99871203E-03
   .78587581E-03   .57949556E-03   .38050481E-03   .18974197E-03   .79510005E-05
  -.16421757E-03  -.32620514E-03  -.47754322E-03  -.61785118E-03  -.74683378E-03
  -.86427827E-03  -.97005136E-03  -.10640958E-02  -.11464268E-02  -.12171282E-02
  -.12763489E-02  -.13242981E-02  -.13612417E-02  -.13874978E-02  -.14034322E-02
  -.14094542E-02  -.14060122E-02  -.13935889E-02  -.13726974E-02  -.13438767E-02
  -.13076871E-02  -.12647064E-02  -.12155257E-02  -.11607451E-02  -.11009702E-02
  -.10368085E-02  -.96886520E-03  -.89774057E-03  -.82402625E-03  -.74830241E-03
  -.67113491E-03  -.59307266E-03  -.51464523E-03  -.43636063E-03  -.35870332E-03
  -.28213246E-03  -.20708032E-03  -.13395098E-03  -.63119166E-04   .50706413E-05
   .70304925E-04   .13230163E-03   .19081049E-03   .24561311E-03   .29652293E-03
   .34338497E-03   .38607540E-03   .42450101E-03   .45859843E-03   .48833334E-03
   .51369941E-03   .53471721E-03   .55143303E-03   .56391750E-03   .57226424E-03
   .57658832E-03   .57702478E-03   .57372698E-03   .56686499E-03   .55662391E-03
   .54320214E-03   .52680975E-03   .50766669E-03   .48600114E-03   .46204783E-03
   .43604636E-03   .40823959E-03   .37887207E-03   .34818852E-03   .31643233E-03
   .28384419E-03   .25066071E-03   .21711318E-03   .18342640E-03   .14981753E-03
   .11649510E-03   .83658079E-04   .51495031E-04   .20183356E-04  -.10111355E-04
  -.39235885E-04  -.67049863E-04  -.93426137E-04  -.11825106E-03  -.14142469E-03
  -.16286090E-03  -.18248737E-03  -.20024558E-03  -.21609061E-03  -.22999099E-03
  -.24192834E-03  -.25189708E-03  -.25990397E-03  -.26596765E-03  -.27011811E-03
  -.27239610E-03  -.27285251E-03  -.27154772E-03  -.26855090E-03  -.26393925E-03
  -.25779733E-03  -.25021621E-03  -.24129273E-03  -.23112875E-03  -.21983029E-03
  -.20750680E-03  -.19427034E-03  -.18023483E-03  -.16551531E-03  -.15022716E-03
  -.13448543E-03  -.11840412E-03  -.10209554E-03  -.85669667E-04  -.69233570E-04
  -.52890843E-04  -.36741093E-04  -.20879463E-04  -.53961977E-05   .96237425E-05
   .24101029E-04   .37962265E-04   .51140239E-04   .63574137E-04   .75209701E-04
   .85999356E-04   .95902280E-04   .10488444E-03   .11291857E-03   .11998416E-03
   .12606731E-03   .13116065E-03   .13526315E-03   .13837996E-03   .14052216E-03
   .14170648E-03   .14195510E-03   .14129526E-03   .13975898E-03   .13738273E-03
   .13420703E-03   .13027610E-03   .12563748E-03   .12034163E-03   .11444153E-03
   .10799230E-03   .10105076E-03   .93675078E-04   .85924346E-04   .77858196E-04
   .69536422E-04   .61018613E-04   .52363795E-04   .43630086E-04   .34874369E-04
   .26151984E-04   .17516437E-04   .90191244E-05   .70908681E-06  -.73672240E-05
  -.15166150E-04  -.22647013E-04  -.29772273E-04  -.36507666E-04  -.42822320E-04
  -.48688843E-04  -.54083386E-04  -.58985694E-04  -.63379116E-04  -.67250614E-04
  -.70590729E-04  -.73393543E-04  -.75656612E-04  -.77380883E-04  -.78570594E-04
  -.79233150E-04  -.79378995E-04  -.79021461E-04  -.78176606E-04  -.76863040E-04
  -.75101742E-04  -.72915866E-04  -.70330541E-04  -.67372664E-04  -.64070686E-04
  -.60454399E-04  -.56554718E-04  -.52403460E-04  -.48033132E-04  -.43476709E-04
  -.38767424E-04  -.33938561E-04  -.29023248E-04  -.24054263E-04  -.19063844E-04
  -.14083507E-04  -.91438756E-05  -.42745171E-05   .49620670E-06   .51412808E-05
   .96351651E-05   .13953911E-04   .18075262E-04   .21978751E-04   .25645769E-04
   .29059637E-04   .32205653E-04   .35071131E-04   .37645427E-04   .39919951E-04
   .41888164E-04   .43545569E-04   .44889684E-04   .45920005E-04   .46637965E-04
   .47046867E-04   .47151826E-04   .46959689E-04   .46478947E-04   .45719652E-04
   .44693306E-04   .43412765E-04   .41892124E-04   .40146599E-04   .38192415E-04
   .36046673E-04   .33727235E-04   .31252592E-04   .28641738E-04   .25914044E-04
   .23089132E-04   .20186748E-04   .17226643E-04   .14228453E-04   .11211580E-04
   .81950856E-05   .51975778E-05   .22371140E-05  -.66889672E-06  -.35037840E-05
  -.62516991E-05  -.88976917E-05  -.11427779E-04  -.13829010E-04  -.16089514E-04
  -.18198556E-04  -.20146569E-04  -.21925187E-04  -.23527268E-04  -.24946912E-04
  -.26179464E-04  -.27221517E-04  -.28070904E-04  -.28726683E-04  -.29189115E-04
  -.29459636E-04  -.29540823E-04  -.29436352E-04  -.29150950E-04  -.28690349E-04
  -.28061222E-04  -.27271127E-04  -.26328439E-04  -.25242286E-04  -.24022472E-04
  -.22679406E-04  -.21224026E-04  -.19667722E-04  -.18022255E-04  -.16299680E-04
  -.14512267E-04  -.12672419E-04  -.10792600E-04  -.88852521E-05  -.69627242E-05
  -.50371983E-05  -.31206193E-05  -.12246274E-05   .63950578E-06   .24609381E-05
   .42293137E-05   .59348153E-05   .75682132E-05   .91209090E-05   .10584974E-04
   .11953186E-04   .13219055E-04   .14376852E-04   .15421623E-04   .16349210E-04
   .17156256E-04   .17840207E-04   .18399320E-04   .18832646E-04   .19140030E-04
   .19322091E-04   .19380204E-04   .19316475E-04   .19133719E-04   .18835421E-04
   .18425709E-04   .17909314E-04   .17291525E-04   .16578155E-04   .15775485E-04
   .14890225E-04   .13929462E-04   .12900608E-04   .11811350E-04   .10669597E-04
   .94834310E-05   .82610489E-05   .70107145E-05   .57407051E-05   .44592612E-05
   .31745364E-05   .18945501E-05   .62714019E-06  -.62008082E-06  -.18397684E-05
  -.30248858E-05  -.41687412E-05  -.52650224E-05  -.63078283E-05  -.72916972E-05
  -.82116324E-05  -.90631239E-05  -.98421674E-05  -.10545279E-04  -.11169508E-04
  -.11712443E-04  -.12172220E-04  -.12547521E-04  -.12837574E-04  -.13042146E-04
  -.13161538E-04  -.13196569E-04  -.13148565E-04  -.13019339E-04  -.12811175E-04
  -.12526802E-04  -.12169371E-04  -.11742426E-04  -.11249877E-04  -.10695971E-04
  -.10085257E-04  -.94225528E-05  -.87129120E-05  -.79615886E-05  -.71740002E-05
  -.63556925E-05  -.55123027E-05  -.46495229E-05  -.37730646E-05  -.28886227E-05
  -.20018410E-05  -.11182782E-05  -.24337511E-06   .61757681E-06   .14594654E-05
   .22773863E-05   .30666696E-05   .38229044E-05   .45419617E-05   .52200151E-05
   .58535589E-05   .64394244E-05   .69747935E-05   .74572103E-05   .78845898E-05
   .82552245E-05   .85677884E-05   .88213388E-05   .90153155E-05   .91495375E-05
   .92241979E-05   .92398562E-05   .91974287E-05   .90981765E-05   .89436921E-05
   .87358839E-05   .84769587E-05   .81694033E-05   .78159643E-05   .74196266E-05
   .69835909E-05   .65112504E-05   .60061664E-05   .54720433E-05   .49127033E-05
   .43320612E-05   .37340976E-05   .31228342E-05   .25023075E-05   .18765438E-05
   .12495342E-05   .62521077E-06   .74229722E-08  -.60008483E-06  -.11936948E-05
  -.17699359E-05  -.23255030E-05  -.28572748E-05  -.33623298E-05  -.38379611E-05
  -.42816902E-05  -.46912777E-05  -.50647339E-05  -.54003269E-05  -.56965888E-05
  -.59523205E-05  -.61665951E-05  -.63387586E-05  -.64684298E-05  -.65554981E-05
  -.66001197E-05  -.66027122E-05  -.65639478E-05  -.64847450E-05  -.63662586E-05
  -.62098689E-05  -.60171693E-05  -.57899532E-05  -.55301992E-05  -.52400560E-05
  -.49218264E-05  -.45779503E-05  -.42109875E-05  -.38235996E-05  -.34185322E-05
  -.29985964E-05  -.25666499E-05  -.21255791E-05  -.16782804E-05  -.12276423E-05
  -.77652724E-06  -.32775462E-06   .11591608E-06   .55180149E-06   .97730969E-06
   .13899549E-05   .17873710E-05   .21673244E-05   .25277259E-05   .28666410E-05
   .31822994E-05   .34731039E-05   .37376366E-05   .39746657E-05   .41831496E-05
   .43622405E-05   .45112865E-05   .46298327E-05   .47176205E-05   .47745864E-05
   .48008593E-05   .47967564E-05   .47627783E-05   .46996034E-05   .46080802E-05
   .44892199E-05   .43441875E-05   .41742918E-05   .39809755E-05   .37658040E-05
   .35304536E-05   .32766997E-05   .30064040E-05   .27215019E-05   .24239892E-05
   .21159089E-05   .17993378E-05   .14763732E-05   .11491195E-05   .81967526E-06
   .49012036E-06   .16250323E-06  -.16117114E-06  -.47895294E-06  -.78895872E-06
  -.10893820E-05  -.13785031E-05  -.16546986E-05  -.19164499E-05  -.21623506E-05
  -.23911139E-05  -.26015785E-05  -.27927136E-05  -.29636238E-05  -.31135521E-05
  -.32418826E-05  -.33481422E-05  -.34320012E-05  -.34932733E-05  -.35319147E-05
  -.35480216E-05  -.35418283E-05  -.35137033E-05  -.34641447E-05  -.33937759E-05
  -.33033392E-05  -.31936900E-05  -.30657893E-05  -.29206967E-05  -.27595622E-05
  -.25836178E-05  -.23941689E-05  -.21925846E-05  -.19802892E-05  -.17587520E-05
  -.15294778E-05  -.12939972E-05  -.10538567E-05  -.81060925E-06  -.56580417E-06
  -.32097807E-06  -.77645478E-07   .16271016E-06   .39864507E-06   .62876349E-06
   .85172547E-06   .10662544E-05   .12711437E-05   .14652634E-05   .16475661E-05
   .18170918E-05   .19729729E-05   .21144380E-05   .22408153E-05   .23515354E-05
   .24461331E-05   .25242492E-05   .25856306E-05   .26301310E-05   .26577098E-05
   .26684311E-05   .26624617E-05   .26400689E-05   .26016172E-05   .25475648E-05
   .24784595E-05   .23949342E-05   .22977017E-05   .21875492E-05   .20653328E-05
   .19319709E-05   .17884378E-05   .16357574E-05   .14749955E-05   .13072536E-05
   .11336608E-05   .95536717E-06   .77353619E-06   .58933739E-06   .40393919E-06
   .21850176E-06   .34170044E-07  -.14793308E-06  -.32671332E-06  -.50111135E-06
  -.67010876E-06  -.83273380E-06  -.98806666E-06  -.11352445E-05  -.12734657E-05
  -.14019946E-05  -.15201643E-05  -.16273804E-05  -.17231237E-05  -.18069520E-05
  -.18785022E-05  -.19374914E-05  -.19837175E-05  -.20170594E-05  -.20374768E-05
  -.20450094E-05  -.20397756E-05  -.20219706E-05  -.19918647E-05  -.19498002E-05
  -.18961885E-05  -.18315070E-05  -.17562951E-05  -.16711501E-05  -.15767227E-05
  -.14737130E-05  -.13628646E-05  -.12449603E-05  -.11208164E-05  -.99127768E-06
  -.85721128E-06  -.71950164E-06  -.57904462E-06  -.43674191E-06  -.29349546E-06
  -.15020193E-06  -.77472335E-08   .13299871E-06   .27118717E-06   .40599551E-06
   .53663194E-06   .66234000E-06   .78240276E-06   .89614676E-06   .10029456E-05
   .11022233E-05   .11934570E-05   .12761800E-05   .13499832E-05   .14145179E-05
   .14694964E-05   .15146933E-05   .15499465E-05   .15751568E-05   .15902884E-05
   .15953679E-05   .15904837E-05   .15757845E-05   .15514781E-05   .15178289E-05
   .14751558E-05   .14238297E-05   .13642708E-05   .12969449E-05   .12223605E-05
   .11410648E-05   .10536404E-05   .96070067E-06   .86288604E-06   .76085962E-06
   .65530288E-06   .54691118E-06   .43638940E-06   .32444744E-06   .21179578E-06
   .99141142E-07  -.12817895E-07  -.12339506E-06  -.23192050E-06  -.33774474E-06
  -.44024245E-06  -.53881602E-06  -.63289896E-06  -.72195905E-06  -.80550121E-06
  -.88307017E-06  -.95425281E-06  -.10186803E-05  -.10760297E-05  -.11260258E-05
  -.11684419E-05  -.12031008E-05  -.12298756E-05  -.12486895E-05  -.12595160E-05
  -.12623783E-05  -.12573489E-05  -.12445484E-05  -.12241441E-05  -.11963487E-05
  -.11614185E-05  -.11196509E-05  -.10713826E-05  -.10169869E-05  -.95687086E-06
  -.89147262E-06  -.82125813E-06  -.74671811E-06  -.66836465E-06  -.58672786E-06
  -.50235232E-06  -.41579359E-06  -.32761463E-06  -.23838221E-06  -.14866337E-06
  -.59021902E-07   .29985139E-07   .11781080E-06   .20392150E-06   .28780026E-06
   .36894963E-06   .44689467E-06   .52118558E-06   .59140025E-06   .65714658E-06
   .71806456E-06   .77382822E-06   .82414719E-06   .86876822E-06   .90747625E-06
   .94009542E-06   .96648967E-06   .98656317E-06   .10002605E-05   .10075665E-05
   .10085060E-05   .10031432E-05   .99158072E-06   .97395883E-06   .95045387E-06
   .92127690E-06   .88667202E-06   .84691443E-06   .80230842E-06   .75318516E-06
   .69990031E-06   .64283158E-06   .58237613E-06   .51894787E-06   .45297471E-06
   .38489573E-06   .31515838E-06   .24421551E-06   .17252259E-06   .10053476E-06
   .28704076E-07  -.42523342E-07  -.11270997E-06  -.18142954E-06  -.24826955E-06
  -.31283371E-06  -.37474422E-06  -.43364391E-06  -.48919825E-06  -.54109720E-06
  -.58905685E-06  -.63282094E-06  -.67216209E-06  -.70688299E-06  -.73681722E-06
  -.76183001E-06  -.78181870E-06  -.79671304E-06  -.80647529E-06  -.81110007E-06
  -.81061408E-06  -.80507556E-06  -.79457359E-06  -.77922720E-06  -.75918431E-06
  -.73462049E-06  -.70573757E-06  -.67276209E-06  -.63594364E-06  -.59555303E-06
  -.55188040E-06  -.50523320E-06  -.45593406E-06  -.40431865E-06  -.35073346E-06
  -.29553348E-06  -.23907993E-06  -.18173795E-06  -.12387427E-06  -.65854917E-07
  -.80429576E-08   .49203751E-07   .10553471E-06   .16060890E-06   .21409677E-06
   .26568220E-06   .31506427E-06   .36195902E-06   .40610100E-06   .44724473E-06
   .48516601E-06   .51966309E-06   .55055764E-06   .57769569E-06   .60094823E-06
   .62021180E-06   .63540884E-06   .64648791E-06   .65342369E-06   .65621688E-06
   .65489394E-06   .64950660E-06   .64013130E-06   .62686844E-06   .60984149E-06
   .58919601E-06   .56509847E-06   .53773502E-06   .50731009E-06   .47404498E-06
   .43817628E-06   .39995420E-06   .35964096E-06   .31750895E-06   .27383900E-06
   .22891848E-06   .18303953E-06   .13649714E-06   .89587304E-07   .42605205E-07
  -.41566455E-08  -.50410165E-07  -.95873446E-07  -.14027243E-06  -.18334253E-06
 12.4721915246208948 T
 Non local Part
 1 2 2.23147056756259232
 17.6342702562362703 -22.4426011321286083 -22.4426011321286083 26.8437599885718150
 Reciprocal Space Part
   .00000000E+00   .10298592E+01   .20484974E+01   .30448583E+01   .40082130E+01
   .49283162E+01   .57955537E+01   .66010798E+01   .73369403E+01   .79961809E+01
   .85729372E+01   .90625076E+01   .94614048E+01   .97673882E+01   .99794744E+01
   .10097928E+02   .10124232E+02   .10061037E+02   .99120969E+01   .96821832E+01
   .93769863E+01   .90030051E+01   .85674248E+01   .80779874E+01   .75428566E+01
   .69704793E+01   .63694474E+01   .57483614E+01   .51156981E+01   .44796859E+01
   .38481883E+01   .32285980E+01   .26277434E+01   .20518087E+01   .15062679E+01
   .99583439E+00   .52442552E+00   .95142931E-01  -.28973214E+00  -.62872892E+00
  -.92116341E+00  -.11671021E+01  -.13673140E+01  -.15232135E+01  -.16367937E+01
  -.17105542E+01  -.17474234E+01  -.17506779E+01  -.17238601E+01  -.16706969E+01
  -.15950193E+01  -.15006863E+01  -.13915126E+01  -.12712029E+01  -.11432927E+01
  -.10110965E+01  -.87766455E+00  -.74574807E+00  -.61777272E+00  -.49582120E+00
  -.38162403E+00  -.27655839E+00  -.18165436E+00  -.97608034E-01  -.24800503E-01
   .36677941E-01   .86999483E-01   .12656721E+00   .15598131E+00   .17600391E+00
   .18752363E+00   .19152049E+00   .18903222E+00   .18112236E+00   .16885107E+00
   .15324890E+00   .13529397E+00   .11589287E+00   .95865374E-01   .75933003E-01
   .56711430E-01   .38706503E-01   .22313698E-01   .78206659E-02  -.45874736E-02
  -.14820518E-01  -.22873672E-01  -.28816595E-01  -.32781466E-01  -.34950506E-01
  -.35543367E-01  -.34804791E-01  -.32992871E-01  -.30368218E-01  -.27184273E-01
  -.23678961E-01  -.20067810E-01  -.16538621E-01  -.13247694E-01  -.10317599E-01
 Real Space Part
   .00000000E+00  -.12870032E+00  -.25466996E+00  -.37521320E+00  -.48770407E+00
  -.58962069E+00  -.67857912E+00  -.75236617E+00  -.80897118E+00  -.84661613E+00
  -.86378393E+00  -.85924416E+00  -.83207610E+00  -.78168818E+00  -.70783361E+00
  -.61062151E+00  -.49052312E+00  -.34837254E+00  -.18536181E+00  -.30298813E-02
   .19675458E+00   .41181660E+00   .63970439E+00   .87772468E+00   .11229833E+01
   .13724307E+01   .16229112E+01   .18712155E+01   .21141354E+01   .23485187E+01
   .25713250E+01   .27796793E+01   .29709225E+01   .31426591E+01   .32927991E+01
   .34195941E+01   .35216662E+01   .35980300E+01   .36481057E+01   .36717243E+01
   .36691240E+01   .36409383E+01   .35881759E+01   .35121935E+01   .34146615E+01
   .32975239E+01   .31629538E+01   .30133047E+01   .28510602E+01   .26787822E+01
   .24990593E+01   .23144570E+01   .21274701E+01   .19404792E+01   .17557116E+01
   .15752077E+01   .14007928E+01   .12340566E+01   .10763374E+01   .92871481E+00
   .79200731E+00   .66677685E+00   .55333863E+00   .45177602E+00   .36195965E+00
   .28356996E+00   .21612246E+00   .15899458E+00   .11145358E+00   .72684348E-01
   .41816709E-01   .17951182E-01   .18288743E-03  -.12377034E-01  -.20582797E-01
  -.25238412E-01  -.27085309E-01  -.26793181E-01  -.24953951E-01  -.22078708E-01
  -.18597343E-01  -.14860585E-01  -.11144081E-01  -.76541321E-02  -.45346781E-02
  -.18751538E-02   .28117789E-03   .19287579E-02   .30914432E-02   .38146634E-02
   .41582392E-02   .41900236E-02   .39804773E-02   .35982356E-02   .31066782E-02
   .25614725E-02   .20090229E-02   .14857341E-02   .10179716E-02   .62259396E-03
 Reciprocal Space Part
   .00000000E+00   .12269204E+01   .24355817E+01   .36079776E+01   .47266046E+01
   .57747047E+01   .67364974E+01   .75973993E+01   .83442260E+01   .89653758E+01
   .94509906E+01   .97930927E+01   .99856955E+01   .10024886E+02   .99088772E+01
   .96380329E+01   .92148580E+01   .86439608E+01   .79319845E+01   .70875077E+01
   .61209189E+01   .50442623E+01   .38710608E+01   .26161170E+01   .12952942E+01
  -.74716397E-01  -.14766417E+01  -.28928809E+01  -.43057628E+01  -.56978050E+01
  -.70519676E+01  -.83518997E+01  -.95821734E+01  -.10728502E+02  -.11777941E+02
  -.12719059E+02  -.13542094E+02  -.14239073E+02  -.14803905E+02  -.15232443E+02
  -.15522511E+02  -.15673903E+02  -.15688344E+02  -.15569425E+02  -.15322506E+02
  -.14954592E+02  -.14474180E+02  -.13891090E+02  -.13216274E+02  -.12461610E+02
  -.11639684E+02  -.10763568E+02  -.98465924E+01  -.89021246E+01  -.79433473E+01
  -.69830517E+01  -.60334414E+01  -.51059550E+01  -.42111071E+01  -.33583529E+01
  -.25559762E+01  -.18110041E+01  -.11291474E+01  -.51476902E+00   .29121908E-01
   .50084927E+00   .90002529E+00   .12274829E+01   .14851882E+01   .16761342E+01
   .18042215E+01   .18741258E+01   .18911575E+01   .18611175E+01   .17901498E+01
   .16845968E+01   .15508592E+01   .13952633E+01   .12239386E+01   .10427080E+01
   .85699128E+00   .67172502E+00   .49129864E+00   .31950729E+00   .15952189E+00
   .13875885E-01  -.11553214E+00  -.22742099E+00  -.32109595E+00  -.39640617E+00
  -.45369216E+00  -.49372548E+00  -.51764271E+00  -.52687581E+00  -.52308103E+00
  -.50806833E+00  -.48373323E+00  -.45199276E+00  -.41472689E+00  -.37372684E+00
 Real Space Part
   .00000000E+00  -.30285409E+01  -.60240798E+01  -.89540583E+01  -.11786799E+02
  -.14491933E+02  -.17040802E+02  -.19406850E+02  -.21565970E+02  -.23496829E+02
  -.25181147E+02  -.26603932E+02  -.27753674E+02  -.28622477E+02  -.29206149E+02
  -.29504227E+02  -.29519951E+02  -.29260183E+02  -.28735264E+02  -.27958819E+02
  -.26947518E+02  -.25720778E+02  -.24300434E+02  -.22710361E+02  -.20976079E+02
  -.19124322E+02  -.17182599E+02  -.15178746E+02  -.13140479E+02  -.11094955E+02
  -.90683513E+01  -.70854723E+01  -.51693880E+01  -.33411126E+01  -.16193292E+01
  -.20165469E-01   .14429765E+01   .27595334E+01   .39218361E+01   .49251070E+01
   .57674017E+01   .64494968E+01   .69747292E+01   .73487908E+01   .75794851E+01
   .76764531E+01   .76508749E+01   .75151556E+01   .72826026E+01   .69671031E+01
   .65828078E+01   .61438296E+01   .56639627E+01   .51564268E+01   .46336436E+01
   .41070460E+01   .35869248E+01   .30823139E+01   .26009133E+01   .21490502E+01
   .17316759E+01   .13523962E+01   .10135321E+01   .71620584E+00   .46044933E+00
   .24532913E+00   .69083629E-01  -.70732568E-01  -.17710160E+00  -.25339706E+00
  -.30324448E+00  -.33039079E+00  -.33858592E+00  -.33147852E+00  -.31252749E+00
  -.28493028E+00  -.25156826E+00  -.21496883E+00  -.17728370E+00  -.14028182E+00
  -.10535567E+00  -.73538915E-01  -.45533329E-01  -.21743032E-01  -.23137439E-02
   .12824916E-01   .23916057E-01   .31332782E-01   .35537590E-01   .37045149E-01
   .36389365E-01   .34095401E-01   .30657028E-01   .26519393E-01   .22067085E-01
   .17617170E-01   .13416691E-01   .96440191E-02   .64133593E-02   .37816761E-02
 Non local Part
 0 2 2.23147056756259232
 2.32547747142403161 -0.260534171370494394 -0.260534171370494394 0.451679691693489954E-01
 Reciprocal Space Part
   .30891231E+02   .30825527E+02   .30629115E+02   .30304077E+02   .29853849E+02
   .29283166E+02   .28597996E+02   .27805442E+02   .26913644E+02   .25931650E+02
   .24869291E+02   .23737029E+02   .22545816E+02   .21306929E+02   .20031823E+02
   .18731967E+02   .17418696E+02   .16103063E+02   .14795701E+02   .13506695E+02
   .12245471E+02   .11020689E+02   .98401631E+01   .87107922E+01   .76385063E+01
   .66282346E+01   .56838883E+01   .48083615E+01   .40035476E+01   .32703720E+01
   .26088384E+01   .20180873E+01   .14964668E+01   .10416107E+01   .65052570E+00
   .31968228E+00   .45109867E-01  -.17750715E+00  -.35273392E+00  -.48529198E+00
  -.57997018E+00  -.64154101E+00  -.67468380E+00  -.68391569E+00  -.67353128E+00
  -.64755161E+00  -.60968264E+00  -.56328371E+00  -.51134550E+00  -.45647753E+00
  -.40090456E+00  -.34647117E+00  -.29465398E+00  -.24658038E+00  -.20305284E+00
  -.16457786E+00  -.13139829E+00  -.10352818E+00  -.80788907E-01  -.62845685E-01
  -.49243513E-01  -.39441723E-01  -.32846380E-01  -.28839932E-01  -.26807607E-01
  -.26160199E-01  -.26352990E-01  -.26900709E-01  -.27388517E-01  -.27479136E-01
  -.26916341E-01  -.25525084E-01  -.23208644E-01  -.19943196E-01  -.15770268E-01
  -.10787553E-01  -.51385684E-02   .99837739E-03   .74214453E-02   .13916347E-01
   .20266866E-01   .26264505E-01   .31716984E-01   .36455399E-01   .40339891E-01
   .43263754E-01   .45155958E-01   .45982133E-01   .45744092E-01   .44478028E-01
   .42251560E-01   .39159803E-01   .35320694E-01   .30869787E-01   .25954741E-01
   .20729731E-01   .15349969E-01   .99665409E-02   .47217154E-02  -.25514935E-03
 Real Space Part
   .78204126E+01   .78191262E+01   .78152507E+01   .78087371E+01   .77995039E+01
   .77874378E+01   .77723939E+01   .77541973E+01   .77326437E+01   .77075011E+01
   .76785119E+01   .76453950E+01   .76078486E+01   .75655535E+01   .75181772E+01
   .74653776E+01   .74068084E+01   .73421240E+01   .72709856E+01   .71930672E+01
   .71080622E+01   .70156901E+01   .69157033E+01   .68078941E+01   .66921012E+01
   .65682163E+01   .64361900E+01   .62960371E+01   .61478415E+01   .59917598E+01
   .58280241E+01   .56569439E+01   .54789063E+01   .52943753E+01   .51038897E+01
   .49080597E+01   .47075621E+01   .45031343E+01   .42955672E+01   .40856968E+01
   .38743950E+01   .36625597E+01   .34511041E+01   .32409454E+01   .30329941E+01
   .28281423E+01   .26272528E+01   .24311486E+01   .22406028E+01   .20563298E+01
   .18789766E+01   .17091164E+01   .15472427E+01   .13937648E+01   .12490052E+01
   .11131981E+01   .98648913E+00   .86893733E+00   .76051748E+00   .66112438E+00
   .57057802E+00   .48862980E+00   .41496954E+00   .34923324E+00   .29101121E+00
   .23985664E+00   .19529413E+00   .15682830E+00   .12395206E+00   .96154572E-01
   .72928625E-01   .53777407E-01   .38220537E-01   .25799276E-01   .16080895E-01
   .86621551E-02   .31719053E-02  -.72717886E-03  -.33376813E-02  -.49272980E-02
  -.57293835E-02  -.59441117E-02  -.57401572E-02  -.52568042E-02  -.46063834E-02
  -.38769411E-02  -.31350471E-02  -.24286550E-02  -.17899348E-02  -.12380100E-02
  -.78153942E-03  -.42109685E-03  -.15131378E-03   .37239530E-04   .15644693E-03
   .21931602E-03   .23891791E-03   .22758297E-03   .19633169E-03   .15451528E-03
 Reciprocal Space Part
   .33550681E+02   .33812375E+02   .34591872E+02   .35872530E+02   .37627013E+02
   .39817868E+02   .42398330E+02   .45313313E+02   .48500580E+02   .51892055E+02
   .55415262E+02   .58994832E+02   .62554075E+02   .66016556E+02   .69307657E+02
   .72356083E+02   .75095276E+02   .77464718E+02   .79411085E+02   .80889229E+02
   .81862982E+02   .82305744E+02   .82200873E+02   .81541843E+02   .80332199E+02
   .78585289E+02   .76323805E+02   .73579130E+02   .70390519E+02   .66804142E+02
   .62871992E+02   .58650716E+02   .54200369E+02   .49583142E+02   .44862079E+02
   .40099823E+02   .35357409E+02   .30693134E+02   .26161530E+02   .21812455E+02
   .17690318E+02   .13833453E+02   .10273652E+02   .70358596E+01   .41380238E+01
   .15911135E+01  -.60071827E+00  -.24398275E+01  -.39346460E+01  -.50991363E+01
  -.59521535E+01  -.65167335E+01  -.68193272E+01  -.68890041E+01  -.67566429E+01
  -.64541318E+01  -.60135961E+01  -.54666704E+01  -.48438314E+01  -.41738038E+01
  -.34830492E+01  -.27953474E+01  -.21314729E+01  -.15089706E+01  -.94202874E+00
  -.44144740E+00  -.14695894E-01   .33394778E+00   .60318485E+00   .79442170E+00
   .91144562E+00   .96006271E+00   .94771062E+00   .88305876E+00   .77560807E+00
   .63530180E+00   .47215761E+00   .29593007E+00   .11581120E+00  -.59825123E-01
  -.22363031E+00  -.36943748E+00  -.49236607E+00  -.58887540E+00  -.65676950E+00
  -.69515669E+00  -.70436865E+00  -.68584472E+00  -.64198771E+00  -.57599816E+00
  -.49169399E+00  -.39332278E+00  -.28537329E+00  -.17239282E+00  -.58816005E-01
   .51189820E-01   .15385861E+00   .24593578E+00   .32476232E+00   .38833187E+00
 Real Space Part
   .87029908E+02   .87025590E+02   .87011422E+02   .86983779E+02   .86936711E+02
   .86862078E+02   .86749733E+02   .86587753E+02   .86362711E+02   .86059994E+02
   .85664140E+02   .85159212E+02   .84529185E+02   .83758341E+02   .82831676E+02
   .81735294E+02   .80456790E+02   .78985609E+02   .77313380E+02   .75434207E+02
   .73344922E+02   .71045279E+02   .68538101E+02   .65829358E+02   .62928191E+02
   .59846866E+02   .56600661E+02   .53207694E+02   .49688688E+02   .46066679E+02
   .42366674E+02   .38615261E+02   .34840186E+02   .31069902E+02   .27333101E+02
   .23658232E+02   .20073032E+02   .16604065E+02   .13276280E+02   .10112614E+02
   .71336245E+01   .43571822E+01   .17982126E+01  -.53149687E+00  -.26234249E+01
  -.44723786E+01  -.60764874E+01  -.74371313E+01  -.85588070E+01  -.94489350E+01
  -.10117614E+02  -.10577334E+02  -.10842643E+02  -.10929800E+02  -.10856393E+02
  -.10640961E+02  -.10302606E+02  -.98606199E+01  -.93341255E+01  -.87417440E+01
  -.81012926E+01  -.74295202E+01  -.67418831E+01  -.60523659E+01  -.53733473E+01
  -.47155124E+01  -.40878091E+01  -.34974484E+01  -.29499434E+01  -.24491837E+01
  -.19975416E+01  -.15960024E+01  -.12443153E+01  -.94115822E+00  -.68431067E+00
  -.47082976E+00  -.29722390E+00  -.15961971E+00  -.53918149E-01   .24063341E-01
   .78465312E-01   .11327905E+00   .13225869E+00   .13885294E+00   .13615609E+00
   .12687735E+00   .11332705E+00   .97417913E-01   .80679192E-01   .64281420E-01
   .49069340E-01   .35600636E-01   .24188174E-01   .14943648E-01   .78207420E-02
   .26562223E-02  -.79234524E-03  -.28132139E-02  -.37120679E-02  -.37889715E-02
 Non local Part
 2 2 2.23147056756259232
 14.9852838803581498 17.3354969632491631 17.3354969632491631 19.8519357845737403
 Reciprocal Space Part
   .00000000E+00   .25278802E-01   .10065810E+00   .22477515E+00   .39538722E+00
   .60941369E+00   .86299380E+00   .11515590E+01   .14699179E+01   .18123535E+01
   .21727282E+01   .25445979E+01   .29213295E+01   .32962220E+01   .36626278E+01
   .40140711E+01   .43443633E+01   .46477104E+01   .49188127E+01   .51529541E+01
   .53460783E+01   .54948531E+01   .55967190E+01   .56499234E+01   .56535386E+01
   .56074651E+01   .55124178E+01   .53698989E+01   .51821557E+01   .49521258E+01
   .46833701E+01   .43799968E+01   .40465754E+01   .36880459E+01   .33096221E+01
   .29166933E+01   .25147247E+01   .21091597E+01   .17053257E+01   .13083443E+01
   .92304895E+00   .55391051E+00   .20497190E+00  -.12020645E+00  -.41859021E+00
  -.68770320E+00  -.92564748E+00  -.11311117E+01  -.13033678E+01  -.14422569E+01
  -.15481647E+01  -.16219872E+01  -.16650888E+01  -.16792528E+01  -.16666259E+01
  -.16296591E+01  -.15710448E+01  -.14936531E+01  -.14004673E+01  -.12945212E+01
  -.11788386E+01  -.10563766E+01  -.92997373E+00  -.80230290E+00  -.67583156E+00
  -.55278800E+00  -.43513494E+00  -.32455045E+00  -.22241612E+00  -.12981233E+00
  -.47520415E-01   .23968992E-01   .84441706E-01   .13394077E+00   .17274288E+00
   .20133139E+00   .22036663E+00   .23065456E+00   .23311444E+00   .22874654E+00
   .21860053E+00   .20374530E+00   .18524091E+00   .16411308E+00   .14133084E+00
   .11778747E+00   .94285150E-01   .71523323E-01   .50090789E-01   .30461503E-01
   .12993857E-01  -.20668021E-02  -.14582749E-01  -.24515923E-01  -.31917869E-01
  -.36918037E-01  -.39710887E-01  -.40542294E-01  -.39695681E-01  -.37478328E-01
 Real Space Part
   .00000000E+00  -.16416011E-01  -.65190388E-01  -.14491494E+00  -.25328489E+00
  -.38716094E+00  -.54265365E+00  -.71522778E+00  -.89982356E+00  -.10909916E+01
  -.12830374E+01  -.14701719E+01  -.16466632E+01  -.18069861E+01  -.19459645E+01
  -.20589038E+01  -.21417091E+01  -.21909863E+01  -.22041239E+01  -.21793537E+01
  -.21157879E+01  -.20134340E+01  -.18731855E+01  -.16967906E+01  -.14867998E+01
  -.12464935E+01  -.97979303E+00  -.69115782E+00  -.38547084E+00  -.67916849E-01
   .25614386E+00   .58130239E+00   .90222562E+00   .12137748E+01   .15111154E+01
   .17898155E+01   .20459314E+01   .22760769E+01   .24774770E+01   .26480048E+01
   .27862000E+01   .28912712E+01   .29630820E+01   .30021213E+01   .30094609E+01
   .29867005E+01   .29359037E+01   .28595260E+01   .27603384E+01   .26413471E+01
   .25057136E+01   .23566759E+01   .21974732E+01   .20312764E+01   .18611246E+01
   .16898699E+01   .15201316E+01   .13542587E+01   .11943027E+01   .10420002E+01
   .89876438E+00   .76568527E+00   .64353827E+00   .53279948E+00   .43366717E+00
   .34608800E+00   .26978696E+00   .20429979E+00   .14900667E+00   .10316622E+00
   .65948714E-01   .36467703E-01   .13809278E-01  -.29415651E-02  -.14677931E-01
  -.22251656E-01  -.26457716E-01  -.28022404E-01  -.27595159E-01  -.25743826E-01
  -.22953035E-01  -.19625336E-01  -.16084653E-01  -.12581635E-01  -.93004380E-02
  -.63665090E-02  -.38549440E-02  -.17990538E-02  -.19879492E-03   .97121063E-03
   .17542944E-02   .22051655E-02   .23842517E-02   .23530169E-02   .21702660E-02
   .18894064E-02   .15566019E-02   .12097269E-02   .87801145E-03   .58225373E-03
 Reciprocal Space Part
   .00000000E+00  -.23243065E-01  -.92360503E-01  -.20552880E+00  -.35974770E+00
  -.55089797E+00  -.77382081E+00  -.10224176E+01  -.12897685E+01  -.15682671E+01
  -.18497699E+01  -.21257570E+01  -.23875014E+01  -.26262449E+01  -.28333754E+01
  -.30006040E+01  -.31201386E+01  -.31848495E+01  -.31884249E+01  -.31255132E+01
  -.29918488E+01  -.27843593E+01  -.25012509E+01  -.21420720E+01  -.17077512E+01
  -.12006101E+01  -.62435037E+00   .15986467E-01   .71408419E+00   .14624426E+01
   .22524917E+01   .30747274E+01   .39188669E+01   .47740205E+01   .56288765E+01
   .64718969E+01   .72915187E+01   .80763575E+01   .88154103E+01   .94982520E+01
   .10115223E+02   .10657601E+02   .11117763E+02   .11489317E+02   .11767219E+02
   .11947861E+02   .12029136E+02   .12010464E+02   .11892806E+02   .11678630E+02
   .11371866E+02   .10977818E+02   .10503060E+02   .99553063E+01   .93432602E+01
   .86764446E+01   .79650207E+01   .72195955E+01   .64510239E+01   .56702089E+01
   .48879048E+01   .41145268E+01   .33599712E+01   .26334499E+01   .19433426E+01
   .12970690E+01   .70098463E+00   .16029991E+00  -.32097393E+00  -.74005319E+00
  -.10953836E+01  -.13866164E+01  -.16145604E+01  -.17811109E+01  -.18891585E+01
  -.19424800E+01  -.19456150E+01  -.19037306E+01  -.18224786E+01  -.17078487E+01
  -.15660205E+01  -.14032187E+01  -.12255743E+01  -.10389956E+01  -.84905038E+00
  -.66086305E+00  -.47902778E+00  -.30753944E+00  -.14974300E+00  -.83020556E-02
   .11481381E+00   .21832339E+00   .30161091E+00   .36468733E+00   .40813775E+00
   .43305686E+00   .44097511E+00   .43377777E+00   .41361976E+00   .38283868E+00
 Real Space Part
   .00000000E+00   .11201173E+00   .44564025E+00   .99372141E+00   .17444994E+01
   .26818986E+01   .37858943E+01   .50329726E+01   .63966681E+01   .78481661E+01
   .93569524E+01   .10891497E+02   .12419952E+02   .13910849E+02   .15333778E+02
   .16660027E+02   .17863182E+02   .18919652E+02   .19809123E+02   .20514933E+02
   .21024348E+02   .21328740E+02   .21423678E+02   .21308904E+02   .20988231E+02
   .20469338E+02   .19763490E+02   .18885183E+02   .17851728E+02   .16682786E+02
   .15399862E+02   .14025787E+02   .12584177E+02   .11098908E+02   .95936021E+01
   .80911445E+01   .66132406E+01   .51800206E+01   .38097007E+01   .25183062E+01
   .13194599E+01   .22423812E+00  -.75890690E+00  -.16241583E+01  -.23682845E+01
  -.29905319E+01  -.34924667E+01  -.38777730E+01  -.41520152E+01  -.43223728E+01
  -.43973565E+01  -.43865140E+01  -.43001337E+01  -.41489543E+01  -.39438875E+01
  -.36957591E+01  -.34150752E+01  -.31118168E+01  -.27952654E+01  -.24738626E+01
  -.21551047E+01  -.18454702E+01  -.15503817E+01  -.12741976E+01  -.10202337E+01
  -.79080789E+00  -.58730803E+00  -.41027573E+00  -.25950384E+00  -.13414275E+00
  -.32811509E-01   .46289833E-01   .10527023E+00   .14644297E+00   .17222879E+00
   .18506891E+00   .18734935E+00   .18133753E+00   .16913167E+00   .15262277E+00
   .13346905E+00   .11308171E+00   .92621204E-01   .73002514E-01   .54908132E-01
   .38807058E-01   .24978358E-01   .13537708E-01   .44655169E-02  -.23646736E-02
  -.71586289E-02  -.10175650E-01  -.11705322E-01  -.12047311E-01  -.11494548E-01
  -.10319943E-01  -.87666006E-02  -.70413847E-02  -.53115251E-02  -.37039088E-02
 PAW radial sets
 333 1.26577506924656746
(5E20.12)                                
 augmentation charges (non sperical)
   .755298758289E+00  -.771108689337E+00  -.179271448371E+00   .267567785899E-01   .470295549745E+00
   .447192211777E+00  -.771108689337E+00   .739145076352E+00   .126890567586E+00  -.254671000925E-01
  -.485746109817E+00  -.436484108699E+00  -.179271448371E+00   .126890567586E+00  -.226782988695E-01
  -.488334097276E-02  -.116016757419E+00  -.822384362546E-01   .267567785899E-01  -.254671000925E-01
  -.488334097276E-02   .685349082567E-03   .179278011172E-01   .149994707110E-01   .470295549745E+00
  -.485746109817E+00  -.116016757419E+00   .179278011172E-01   .338002121950E+00   .326957689945E+00
   .447192211777E+00  -.436484108699E+00  -.822384362546E-01   .149994707110E-01   .326957689945E+00
   .305152141710E+00
 uccopancies in atom
   .200000000056E+01   .000000000000E+00   .000000000000E+00   .000000000000E+00   .000000000000E+00
   .000000000000E+00   .000000000000E+00   .000000000000E+00   .000000000000E+00   .000000000000E+00
   .000000000000E+00   .000000000000E+00   .000000000000E+00   .000000000000E+00   .200000000330E+01
   .000000000000E+00   .000000000000E+00   .000000000000E+00   .000000000000E+00   .000000000000E+00
   .000000000000E+00   .000000000000E+00   .000000000000E+00   .000000000000E+00   .000000000000E+00
   .000000000000E+00   .000000000000E+00   .000000000000E+00   .000000000000E+00   .000000000000E+00
   .000000000000E+00   .000000000000E+00   .000000000000E+00   .000000000000E+00   .000000000000E+00
   .000000000000E+00
 grid
   .397732746479E-04   .410666023172E-04   .424019857759E-04   .437807925734E-04   .452044347281E-04
   .466743701742E-04   .481921042540E-04   .497591912597E-04   .513772360255E-04   .530478955705E-04
   .547728807961E-04   .565539582380E-04   .583929518750E-04   .602917449974E-04   .622522821352E-04
   .642765710498E-04   .663666847899E-04   .685247638147E-04   .707530181855E-04   .730537298297E-04
   .754292548770E-04   .778820260727E-04   .804145552686E-04   .830294359962E-04   .857293461217E-04
   .885170505890E-04   .913954042511E-04   .943673547937E-04   .974359457539E-04   .100604319637E-03
   .103875721134E-03   .107253500447E-03   .110741116717E-03   .114342141568E-03   .118060262763E-03
   .121899287983E-03   .125863148727E-03   .129955904333E-03   .134181746142E-03   .138545001784E-03
   .143050139615E-03   .147701773288E-03   .152504666485E-03   .157463737786E-03   .162584065715E-03
   .167870893935E-03   .173329636619E-03   .178965883997E-03   .184785408079E-03   .190794168567E-03
   .196998318955E-03   .203404212837E-03   .210018410407E-03   .216847685182E-03   .223899030935E-03
   .231179668861E-03   .238697054970E-03   .246458887721E-03   .254473115910E-03   .262747946807E-03
   .271291854561E-03   .280113588881E-03   .289222183993E-03   .298626967896E-03   .308337571908E-03
   .318363940539E-03   .328716341664E-03   .339405377048E-03   .350441993197E-03   .361837492570E-03
   .373603545154E-03   .385752200415E-03   .398295899639E-03   .411247488668E-03   .424620231063E-03
   .438427821679E-03   .452684400697E-03   .467404568098E-03   .482603398620E-03   .498296457195E-03
   .514499814886E-03   .531230065346E-03   .548504341814E-03   .566340334659E-03   .584756309495E-03
   .603771125892E-03   .623404256681E-03   .643675807905E-03   .664606539403E-03   .686217886074E-03
   .708531979825E-03   .731571672238E-03   .755360557971E-03   .779922998922E-03   .805284149177E-03
   .831469980770E-03   .858507310281E-03   .886423826297E-03   .915248117771E-03   .945009703296E-03
   .975739061337E-03   .100746766144E-02   .104022799647E-02   .107405361586E-02   .110897916001E-02
   .114504039573E-02   .118227425287E-02   .122071886216E-02   .126041359424E-02   .130139909998E-02
   .134371735211E-02   .138741168824E-02   .143252685517E-02   .147910905479E-02   .152720599132E-02
   .157686692025E-02   .162814269869E-02   .168108583753E-02   .173575055517E-02   .179219283306E-02
   .185047047302E-02   .191064315644E-02   .197277250542E-02   .203692214583E-02   .210315777251E-02
   .217154721653E-02   .224216051467E-02   .231506998110E-02   .239035028149E-02   .246807850945E-02
   .254833426547E-02   .263119973847E-02   .271675978993E-02   .280510204081E-02   .289631696130E-02
   .299049796346E-02   .308774149685E-02   .318814714735E-02   .329181773913E-02   .339885943992E-02
   .350938186979E-02   .362349821336E-02   .374132533574E-02   .386298390219E-02   .398859850172E-02
   .411829777466E-02   .425221454440E-02   .439048595341E-02   .453325360369E-02   .468066370180E-02
   .483286720855E-02   .499001999364E-02   .515228299526E-02   .531982238489E-02   .549280973751E-02
   .567142220729E-02   .585584270901E-02   .604626010536E-02   .624286940041E-02   .644587193926E-02
   .665547561424E-02   .687189507784E-02   .709535196249E-02   .732607510757E-02   .756430079374E-02
   .781027298494E-02   .806424357816E-02   .832647266149E-02   .859722878043E-02   .887678921291E-02
   .916544025324E-02   .946347750529E-02   .977120618528E-02   .100889414342E-01   .104170086409E-01
   .107557437746E-01   .111054937298E-01   .114666166811E-01   .118394824499E-01   .122244728833E-01
   .126219822451E-01   .130324176197E-01   .134561993288E-01   .138937613619E-01   .143455518206E-01
   .148120333781E-01   .152936837520E-01   .157909961946E-01   .163044799971E-01   .168346610119E-01
   .173820821907E-01   .179473041405E-01   .185309056981E-01   .191334845225E-01   .197556577069E-01
   .203980624112E-01   .210613565139E-01   .217462192861E-01   .224533520871E-01   .231834790827E-01
   .239373479867E-01   .247157308269E-01   .255194247352E-01   .263492527644E-01   .272060647309E-01
   .280907380852E-01   .290041788099E-01   .299473223482E-01   .309211345615E-01   .319266127187E-01
   .329647865171E-01   .340367191376E-01   .351435083327E-01   .362862875513E-01   .374662270993E-01
   .386845353378E-01   .399424599208E-01   .412412890732E-01   .425823529094E-01   .439670247961E-01
   .453967227581E-01   .468729109313E-01   .483971010611E-01   .499708540516E-01   .515957815634E-01
   .532735476641E-01   .550058705329E-01   .567945242197E-01   .586413404623E-01   .605482105619E-01
   .625170873201E-01   .645499870387E-01   .666489915846E-01   .688162505221E-01   .710539833135E-01
   .733644815929E-01   .757501115123E-01   .782133161652E-01   .807566180886E-01   .833826218457E-01
   .860940166939E-01   .888935793385E-01   .917841767762E-01   .947687692315E-01   .978504131877E-01
   .101032264518E+00   .104317581715E+00   .107709729232E+00   .111212180924E+00   .114828523607E+00
   .118562460732E+00   .122417816178E+00   .126398538165E+00   .130508703301E+00   .134752520753E+00
   .139134336561E+00   .143658638088E+00   .148330058614E+00   .153153382082E+00   .158133547997E+00
   .163275656483E+00   .168584973508E+00   .174066936279E+00   .179727158803E+00   .185571437643E+00
   .191605757851E+00   .197836299098E+00   .204269442003E+00   .210911774667E+00   .217770099419E+00
   .224851439782E+00   .232163047668E+00   .239712410802E+00   .247507260392E+00   .255555579045E+00
   .263865608943E+00   .272445860281E+00   .281305119988E+00   .290452460720E+00   .299897250152E+00
   .309649160575E+00   .319718178797E+00   .330114616372E+00   .340849120161E+00   .351932683234E+00
   .363376656128E+00   .375192758472E+00   .387393090986E+00   .399990147877E+00   .412996829633E+00
   .426426456231E+00   .440292780784E+00   .454610003619E+00   .469392786823E+00   .484656269259E+00
   .500416082066E+00   .516688364669E+00   .533489781309E+00   .550837538102E+00   .568749400670E+00
   .587243712324E+00   .606339412854E+00   .626056057929E+00   .646413839114E+00   .667433604556E+00
   .689136880333E+00   .711545892495E+00   .734683589829E+00   .758573667359E+00   .783240590612E+00
   .808709620672E+00   .835006840053E+00   .862159179404E+00   .890194445094E+00   .919141347685E+00
   .949029531335E+00   .979889604155E+00   .101175316956E+01   .104465285861E+01   .107862236349E+01
   .111369647191E+01   .114991110285E+01   .118730334323E+01   .122591148600E+01   .126577506925E+01
   .130693491678E+01   .134943317987E+01   .139331338045E+01   .143862045569E+01   .148540080399E+01
   .153370233252E+01   .158357450625E+01   .163506839866E+01
 aepotential
   .184477991747E+05   .184918176692E+05   .185025028379E+05   .184797126331E+05   .184235377279E+05
   .183343884090E+05   .182128926909E+05   .180598967951E+05   .178765252634E+05   .176640532289E+05
   .174239904065E+05   .171580077504E+05   .168679213791E+05   .165556727186E+05   .162232937324E+05
   .158729229941E+05   .155066814054E+05   .151267818956E+05   .147353497047E+05   .143345668646E+05
   .139265123115E+05   .135132212710E+05   .130966082859E+05   .126785216413E+05   .122606804932E+05
   .118446947573E+05   .114320275823E+05   .110240208682E+05   .106218785879E+05   .102266677082E+05
   .983932439784E+04   .946065248785E+04   .909133224226E+04   .873192358912E+04   .838287521707E+04
   .804453083192E+04   .771713771099E+04   .740085501704E+04   .709576215699E+04   .680186718805E+04
   .651911500216E+04   .624739521694E+04   .598654969293E+04   .573637961624E+04   .549665206405E+04
   .526710614060E+04   .504745843561E+04   .483740814361E+04   .463664148801E+04   .444483568520E+04
   .426166258629E+04   .408679176859E+04   .391989242562E+04   .376063705695E+04   .360870183169E+04
   .346377018043E+04   .332553003323E+04   .319368044551E+04   .306792813333E+04   .294798827073E+04
   .283358873222E+04   .272446555521E+04   .262036576883E+04   .252104684063E+04   .242627696654E+04
   .233583404734E+04   .224950641931E+04   .216709211137E+04   .208839929753E+04   .201324421200E+04
   .194145328931E+04   .187286089320E+04   .180730981698E+04   .174465097857E+04   .168474263020E+04
   .162745036659E+04   .157264656222E+04   .152021057511E+04   .147002737871E+04   .142198843469E+04
   .137599058972E+04   .133193601498E+04   .128973195629E+04   .124929057294E+04   .121052848155E+04
   .117336653266E+04   .113772976428E+04   .110354698191E+04   .107075060830E+04   .103927684575E+04
   .100906418271E+04   .980055676783E+03   .952195896024E+03   .925432954427E+03   .899717374091E+03
   .875001942856E+03   .851242136650E+03   .828395240533E+03   .806420963050E+03   .785280716673E+03
   .764937882586E+03   .745357647705E+03   .726506746664E+03   .708353607622E+03   .690868090385E+03
   .674021414277E+03   .657786280697E+03   .642136465616E+03   .627047161340E+03   .612494493085E+03
   .598455820073E+03   .584909394122E+03   .571834549022E+03   .559211447856E+03   .547021186443E+03
   .535245637839E+03   .523867482703E+03   .512870146884E+03   .502237740562E+03   .491955068366E+03
   .482007544579E+03   .472381209254E+03   .463062658950E+03   .454039035928E+03   .445298005939E+03
   .436827715234E+03   .428616779909E+03   .420654276842E+03   .412929642847E+03   .405432801571E+03
   .398153976026E+03   .391083822821E+03   .384213255421E+03   .377533598698E+03   .371036433472E+03
   .364713638948E+03   .358557401384E+03   .352560147902E+03   .346714558115E+03   .341013569929E+03
   .335450330200E+03   .330018205122E+03   .324710778059E+03   .319521812946E+03   .314445268747E+03
   .309475275118E+03   .304606128629E+03   .299832288831E+03   .295148362705E+03   .290549099798E+03
   .286029386728E+03   .281584238845E+03   .277208792282E+03   .272898302679E+03   .268648132140E+03
   .264453751500E+03   .260310728863E+03   .256214729043E+03   .252161506336E+03   .248146903330E+03
   .244166843037E+03   .240217329670E+03   .236294442823E+03   .232394335205E+03   .228513230689E+03
   .224647421292E+03   .220793266699E+03   .216947190952E+03   .213105683392E+03   .209265296335E+03
   .205422645836E+03   .201574411571E+03   .197717337219E+03   .193848230444E+03   .189963968273E+03
   .186061492914E+03   .182137820371E+03   .178190039717E+03   .174215317631E+03   .170210904654E+03
   .166174134870E+03   .162102439988E+03   .157993347111E+03   .153844490917E+03   .149653621342E+03
   .145418611327E+03   .141137466809E+03   .136808339358E+03   .132429536823E+03   .127999537719E+03
   .123517005941E+03   .118980806675E+03   .114390025257E+03   .109743986086E+03   .105042274691E+03
   .100284760808E+03   .954716248342E+02   .906033850735E+02   .856809282479E+02   .807055421661E+02
   .756789505144E+02   .706033497962E+02   .654814477831E+02   .603165031588E+02   .551123654701E+02
   .498735130433E+02   .446050883862E+02   .393129271416E+02   .340035774616E+02   .286843062935E+02
   .233630846865E+02   .180485490822E+02   .127499279794E+02   .747692825311E+01   .223957368277E+01
  -.295201049659E+01  -.808786671609E+01  -.131585226543E+02  -.181553384225E+02  -.230708469251E+02
  -.278990277176E+02  -.326354225127E+02  -.372769685075E+02  -.418213973354E+02  -.462660441137E+02
  -.506059547319E+02  -.548313128639E+02  -.589244337134E+02  -.628569289807E+02  -.665879690883E+02
  -.700647787506E+02  -.732262986420E+02  -.760102521161E+02  -.783627818781E+02  -.802487817521E+02
  -.816605202671E+02  -.826223329017E+02  -.831898872791E+02  -.834435859817E+02  -.834771045955E+02
  -.833837856041E+02  -.832447501655E+02  -.831220319241E+02  -.830576986533E+02  -.830774058607E+02
  -.831956136122E+02  -.834202328117E+02  -.837556828739E+02  -.842044432859E+02  -.847676201521E+02
  -.854450953030E+02  -.862356073818E+02  -.871368951659E+02  -.881459260995E+02  -.892591417064E+02
  -.904726862788E+02  -.917825678156E+02  -.931847561139E+02  -.946751961443E+02  -.962497654702E+02
  -.979041680593E+02  -.996337755914E+02  -.101433416604E+03  -.103297115304E+03  -.105217777891E+03
  -.107186833273E+03  -.109193845790E+03  -.111226140148E+03  -.113268511685E+03  -.115303142564E+03
  -.117309897137E+03  -.119267215089E+03  -.121153838226E+03  -.122951565751E+03  -.124649085018E+03
  -.126246589051E+03  -.127760158618E+03  -.129223275312E+03  -.130679971442E+03  -.132160959474E+03
  -.133637141887E+03  -.134965350736E+03  -.135878861519E+03  -.136086404395E+03  -.135468570491E+03
  -.134219984968E+03  -.132744964910E+03  -.131368680690E+03  -.130183878125E+03  -.129130563980E+03
  -.128121670529E+03  -.127098852956E+03  -.126036275459E+03  -.124929159112E+03  -.123782453559E+03
  -.122603040948E+03  -.121395644728E+03  -.120161659260E+03  -.118899720621E+03  -.117606931443E+03
  -.116280040931E+03  -.114916286380E+03  -.113513858942E+03  -.112072070695E+03  -.110591318144E+03
  -.109072924778E+03  -.107518911091E+03  -.105930702861E+03  -.104310323482E+03  -.102662146672E+03
  -.100988365397E+03  -.992905738508E+02  -.975697073333E+02  -.958260781028E+02  -.940595977038E+02
  -.922701842402E+02  -.904583181873E+02  -.886256709262E+02  -.867756870220E+02  -.849140328573E+02
  -.830487910236E+02  -.811902512453E+02  -.793499179559E+02  -.775379837972E+02  -.757584048427E+02
  -.740020668728E+02  -.722426320013E+02  -.704440078246E+02  -.685828641009E+02  -.666696195801E+02
  -.647435729585E+02  -.628466178327E+02  -.610039303521E+02
 core charge-density
   .231633428447E-03   .246748536790E-03   .262849129107E-03   .279999371737E-03   .298267600529E-03
   .317726590947E-03   .338453845595E-03   .360531900264E-03   .384048649701E-03   .409097694358E-03
   .435778709440E-03   .464197837712E-03   .494468107544E-03   .526709877823E-03   .561051311437E-03
   .597628879137E-03   .636587895739E-03   .678083090656E-03   .722279215020E-03   .769351687633E-03
   .819487282267E-03   .872884858857E-03   .929756141452E-03   .990326545762E-03   .105483605952E-02
   .112354017891E-02   .119671090464E-02   .127463780137E-02   .135762912441E-02   .144601301805E-02
   .154013878980E-02   .164037826547E-02   .174712722988E-02   .186080695880E-02   .198186584758E-02
   .211078114250E-02   .224806078123E-02   .239424534907E-02   .254991015823E-02   .271566745744E-02
   .289216878019E-02   .308010743984E-02   .328022118068E-02   .349329499441E-02   .372016411201E-02
   .396171718172E-02   .421889964426E-02   .449271731725E-02   .478424020129E-02   .509460652107E-02
   .542502701539E-02   .577678949094E-02   .615126365551E-02   .654990624697E-02   .697426647554E-02
   .742599179754E-02   .790683404006E-02   .841865589682E-02   .896343781668E-02   .954328530726E-02
   .101604366777E-01   .108172712451E-01   .115163180310E-01   .122602649761E-01   .130519687007E-01
   .138944648428E-01   .147909790048E-01   .157449383418E-01   .167599838278E-01   .178399832342E-01
   .189890448616E-01   .202115320613E-01   .215120785910E-01   .228956048473E-01   .243673350184E-01
   .259328152065E-01   .275979325673E-01   .293689355173E-01   .312524550610E-01   .332555272936E-01
   .353856171338E-01   .376506433448E-01   .400590049037E-01   .426196087797E-01   .453418991835E-01
   .482358883529E-01   .513121889391E-01   .545820480596E-01   .580573830866E-01   .617508192367E-01
   .656757290316E-01   .698462736987E-01   .742774465757E-01   .789851185924E-01   .839860858902E-01
   .892981196466E-01   .949400181661E-01   .100931661294E+00   .107294067210E+00   .114049451656E+00
   .121221289628E+00   .128834379588E+00   .136914910216E+00   .145490529721E+00   .154590417721E+00
   .164245359702E+00   .174487824019E+00   .185352041420E+00   .196874087042E+00   .209091964805E+00
   .222045694104E+00   .235777398700E+00   .250331397637E+00   .265754298025E+00   .282095089468E+00
   .299405239890E+00   .317738792448E+00   .337152463222E+00   .357705739254E+00   .379460976514E+00
   .402483497279E+00   .426841686338E+00   .452607085396E+00   .479854484942E+00   .508662012770E+00
   .539111218277E+00   .571287151512E+00   .605278435922E+00   .641177333541E+00   .679079801349E+00
   .719085537308E+00   .761298014540E+00   .805824501885E+00   .852776069034E+00   .902267574176E+00
   .954417632024E+00   .100934855989E+01   .106718629928E+01   .112806031043E+01   .119210343681E+01
   .125945173677E+01   .133024427897E+01   .140462289839E+01   .148273190932E+01   .156471777175E+01
   .165072870728E+01   .174091426065E+01   .183542480296E+01   .193441097221E+01   .203802304732E+01
   .214641025113E+01   .225971997842E+01   .237809694482E+01   .250168225250E+01   .263061236912E+01
   .276501801625E+01   .290502296433E+01   .305074273127E+01   .320228318261E+01   .335973903169E+01
   .352319223901E+01   .369271031107E+01   .386834449977E+01   .405012790496E+01   .423807348382E+01
   .443217197266E+01   .463238972811E+01   .483866649693E+01   .505091312565E+01   .526900922365E+01
   .549280079584E+01   .572209786381E+01   .595667209747E+01   .619625448184E+01   .644053304759E+01
   .668915069671E+01   .694170315864E+01   .719773711553E+01   .745674853891E+01   .771818128375E+01
   .798142598881E+01   .824581933630E+01   .851064372540E+01   .877512741817E+01   .903844521731E+01
   .929971973694E+01   .955802332814E+01   .981238072064E+01   .100617724403E+02   .103051390599E+02
   .105413863354E+02   .107693912766E+02   .109880091896E+02   .111960817244E+02   .113924459443E+02
   .115759444245E+02   .117454363698E+02   .118998097220E+02   .120379942114E+02   .121589752804E+02
   .122618087844E+02   .123456363510E+02   .124097012454E+02   .124533645681E+02   .124761215742E+02
   .124776178790E+02   .124576652815E+02   .124162569133E+02   .123535813903E+02   .122700356249E+02
   .121662359379E+02   .120430270944E+02   .119014888845E+02   .117429398673E+02   .115689379109E+02
   .113812771782E+02   .111819812388E+02   .109732920331E+02   .107576544637E+02   .105376964606E+02
   .103162044387E+02   .100960941608E+02   .988037711158E+01   .967212259609E+01   .947441588625E+01
   .929031284842E+01   .912279159445E+01   .897470180943E+01   .884871249042E+01   .874725893934E+01
   .867248992522E+01   .862621601558E+01   .860986015868E+01   .862441167718E+01   .867038490387E+01
   .874778373829E+01   .885607341534E+01   .899416073799E+01   .916038392158E+01   .935251300753E+01
   .956776152771E+01   .980280976740E+01   .100538396417E+02   .103165809347E+02   .105863684442E+02
   .108582094204E+02   .111268604868E+02   .113869130066E+02   .116328855685E+02   .118593219945E+02
   .120608929982E+02   .122324994153E+02   .123693747744E+02   .124671848714E+02   .125221219929E+02
   .125309914370E+02   .124912880849E+02   .124012608856E+02   .122599633386E+02   .120672882731E+02
   .118239855462E+02   .115316616136E+02   .111927603221E+02   .108105247030E+02   .103889400095E+02
   .993265873351E+01   .944690884376E+01   .893738701301E+01   .841013912435E+01   .787143086145E+01
   .732761167806E+01   .678497588982E+01   .624962499952E+01   .572733561065E+01   .522343735271E+01
   .474270509005E+01   .428926916410E+01   .386654658776E+01   .347719475540E+01   .312308733877E+01
   .280530912037E+01   .252416474359E+01   .227919661003E+01   .206921337654E+01   .189234018454E+01
   .174610599364E+01   .162757193328E+01   .153348052781E+01   .146039391383E+01   .140480599130E+01
   .136323533578E+01   .133230917142E+01   .130884148241E+01   .128990326745E+01   .127288187494E+01
   .125552694580E+01   .123598139180E+01   .121279676423E+01   .118493327227E+01   .115174552707E+01
   .111295574991E+01   .106861664893E+01   .101906644599E+01   .964878637034E+00   .906809024445E+00
   .845742393858E+00   .782640952485E+00   .718496315506E+00   .654286262269E+00   .590937741331E+00
   .529296942826E+00   .470106191589E+00   .413987809979E+00   .361434877286E+00   .312808344761E+00
   .268339856336E+00   .228139450775E+00   .192207193553E+00   .160447698930E+00   .132686464651E+00
   .108686967783E+00   .881675597439E-01   .708173443925E-01   .563104025428E-01   .443179220331E-01
   .345180076137E-01   .266032037492E-01   .202860583797E-01   .153032482812E-01   .114186366211E-01
   .842515796358E-02   .614515368459E-02   .442910539416E-02
 pspotential
  -.151067028533E+03  -.151068492008E+03  -.151069909390E+03  -.151071282133E+03  -.151072611642E+03
  -.151073899280E+03  -.151075146363E+03  -.151076354170E+03  -.151077523937E+03  -.151078656862E+03
  -.151079754105E+03  -.151080816790E+03  -.151081846006E+03  -.151082842805E+03  -.151083808209E+03
  -.151084743206E+03  -.151085648754E+03  -.151086525780E+03  -.151087375181E+03  -.151088197829E+03
  -.151088994564E+03  -.151089766204E+03  -.151090513537E+03  -.151091237329E+03  -.151091938322E+03
  -.151092617233E+03  -.151093274756E+03  -.151093911565E+03  -.151094528313E+03  -.151095125630E+03
  -.151095704128E+03  -.151096264399E+03  -.151096807017E+03  -.151097332536E+03  -.151097841496E+03
  -.151098334416E+03  -.151098811802E+03  -.151099274142E+03  -.151099721908E+03  -.151100155559E+03
  -.151100575539E+03  -.151100982277E+03  -.151101376189E+03  -.151101757678E+03  -.151102127135E+03
  -.151102484936E+03  -.151102831448E+03  -.151103167026E+03  -.151103492010E+03  -.151103806735E+03
  -.151104111520E+03  -.151104406679E+03  -.151104692511E+03  -.151104969308E+03  -.151105237353E+03
  -.151105496919E+03  -.151105748271E+03  -.151105991665E+03  -.151106227349E+03  -.151106455562E+03
  -.151106676536E+03  -.151106890497E+03  -.151107097661E+03  -.151107298238E+03  -.151107492433E+03
  -.151107680441E+03  -.151107862453E+03  -.151108038652E+03  -.151108209217E+03  -.151108374319E+03
  -.151108534124E+03  -.151108688793E+03  -.151108838480E+03  -.151108983336E+03  -.151109123504E+03
  -.151109259123E+03  -.151109390329E+03  -.151109517251E+03  -.151109640013E+03  -.151109758737E+03
  -.151109873537E+03  -.151109984525E+03  -.151110091808E+03  -.151110195489E+03  -.151110295667E+03
  -.151110392436E+03  -.151110485887E+03  -.151110576106E+03  -.151110663177E+03  -.151110747177E+03
  -.151110828183E+03  -.151110906265E+03  -.151110981490E+03  -.151111053923E+03  -.151111123623E+03
  -.151111190647E+03  -.151111255047E+03  -.151111316872E+03  -.151111376166E+03  -.151111432972E+03
  -.151111487325E+03  -.151111539260E+03  -.151111588806E+03  -.151111635989E+03  -.151111680829E+03
  -.151111723344E+03  -.151111763548E+03  -.151111801447E+03  -.151111837047E+03  -.151111870347E+03
  -.151111901341E+03  -.151111930019E+03  -.151111956365E+03  -.151111980358E+03  -.151112001971E+03
  -.151112021173E+03  -.151112037924E+03  -.151112052181E+03  -.151112063891E+03  -.151112072995E+03
  -.151112079430E+03  -.151112083119E+03  -.151112083984E+03  -.151112081932E+03  -.151112076865E+03
  -.151112068675E+03  -.151112057243E+03  -.151112042440E+03  -.151112024125E+03  -.151112002145E+03
  -.151111976337E+03  -.151111946522E+03  -.151111912507E+03  -.151111874085E+03  -.151111831033E+03
  -.151111783111E+03  -.151111730060E+03  -.151111671604E+03  -.151111607444E+03  -.151111537263E+03
  -.151111460718E+03  -.151111377442E+03  -.151111287044E+03  -.151111189104E+03  -.151111083173E+03
  -.151110968771E+03  -.151110845383E+03  -.151110712461E+03  -.151110569419E+03  -.151110415629E+03
  -.151110250422E+03  -.151110073084E+03  -.151109882849E+03  -.151109678904E+03  -.151109460377E+03
  -.151109226341E+03  -.151108975803E+03  -.151108707706E+03  -.151108420920E+03  -.151108114242E+03
  -.151107786387E+03  -.151107435982E+03  -.151107061567E+03  -.151106661581E+03  -.151106234361E+03
  -.151105778131E+03  -.151105291001E+03  -.151104770950E+03  -.151104215827E+03  -.151103623337E+03
  -.151102991031E+03  -.151102316300E+03  -.151101596361E+03  -.151100828246E+03  -.151100008790E+03
  -.151099134620E+03  -.151098202139E+03  -.151097207511E+03  -.151096146647E+03  -.151095015187E+03
  -.151093808483E+03  -.151092521579E+03  -.151091149192E+03  -.151089685689E+03  -.151088125064E+03
  -.151086460917E+03  -.151084686422E+03  -.151082794303E+03  -.151080776803E+03  -.151078625655E+03
  -.151076332043E+03  -.151073886571E+03  -.151071279221E+03  -.151068499316E+03  -.151065535473E+03
  -.151062375558E+03  -.151059006636E+03  -.151055414921E+03  -.151051585716E+03  -.151047503356E+03
  -.151043151144E+03  -.151038511280E+03  -.151033564794E+03  -.151028291467E+03  -.151022669745E+03
  -.151016676659E+03  -.151010287726E+03  -.151003476852E+03  -.150996216228E+03  -.150988476217E+03
  -.150980225232E+03  -.150971429612E+03  -.150962053485E+03  -.150952058625E+03  -.150941404297E+03
  -.150930047094E+03  -.150917940764E+03  -.150905036026E+03  -.150891280371E+03  -.150876617856E+03
  -.150860988877E+03  -.150844329940E+03  -.150826573402E+03  -.150807647208E+03  -.150787474606E+03
  -.150765973849E+03  -.150743057869E+03  -.150718633942E+03  -.150692603324E+03  -.150664860871E+03
  -.150635294630E+03  -.150603785411E+03  -.150570206329E+03  -.150534422320E+03  -.150496289629E+03
  -.150455655269E+03  -.150412356445E+03  -.150366219948E+03  -.150317061512E+03  -.150264685141E+03
  -.150208882388E+03  -.150149431603E+03  -.150086097139E+03  -.150018628514E+03  -.149946759529E+03
  -.149870207343E+03  -.149788671503E+03  -.149701832923E+03  -.149609352817E+03  -.149510871586E+03
  -.149406007652E+03  -.149294356243E+03  -.149175488137E+03  -.149048948345E+03  -.148914254761E+03
  -.148770896763E+03  -.148618333769E+03  -.148455993760E+03  -.148283271777E+03  -.148099528376E+03
  -.147904088081E+03  -.147696237820E+03  -.147475225362E+03  -.147240257772E+03  -.146990499897E+03
  -.146725072899E+03  -.146443052856E+03  -.146143469463E+03  -.145825304851E+03  -.145487492564E+03
  -.145128916728E+03  -.144748411455E+03  -.144344760531E+03  -.143916697443E+03  -.143462905803E+03
  -.142982020242E+03  -.142472627855E+03  -.141933270266E+03  -.141362446432E+03  -.140758616276E+03
  -.140120205269E+03  -.139445610096E+03  -.138733205533E+03  -.137981352708E+03  -.137188408892E+03
  -.136352739020E+03  -.135472729131E+03  -.134546801936E+03  -.133573434754E+03  -.132551180067E+03
  -.131478688959E+03  -.130354737750E+03  -.129178258145E+03  -.127948371288E+03  -.126664426126E+03
  -.125326042579E+03  -.123933160101E+03  -.122486092292E+03  -.120985588418E+03  -.119432902834E+03
  -.117829873531E+03  -.116179011318E+03  -.114483601319E+03  -.112747818669E+03  -.110976859933E+03
  -.109177090497E+03  -.107355252237E+03  -.105520615716E+03  -.103684876288E+03  -.101860468967E+03
  -.100061150164E+03  -.983010699785E+02  -.965926772774E+02  -.949428436710E+02  -.933470824611E+02
  -.917834382330E+02  -.902104635751E+02  -.885753264550E+02  -.868345773262E+02  -.849824776763E+02
  -.830806308506E+02  -.812822964143E+02  -.797423158294E+02  -.781285249552E+02  -.756444723357E+02
  -.737981100303E+02  -.720384465915E+02  -.702838381244E+02  -.684994747011E+02  -.666578113356E+02
  -.647637885985E+02  -.628516832571E+02  -.610039791617E+02
 core charge-density (pseudized)
   .398288804154E-08   .424612666526E-08   .452676336094E-08   .482594800886E-08   .514490648767E-08
   .548494569727E-08   .584745891368E-08   .623393149790E-08   .664594698199E-08   .708519355743E-08
   .755347099233E-08   .805269800578E-08   .858492012961E-08   .915231808975E-08   .975721674153E-08
   .104020945955E-07   .110895939730E-07   .118225318326E-07   .126039113125E-07   .134369340355E-07
   .143250132271E-07   .152717877013E-07   .162811367699E-07   .173571961378E-07   .185043748483E-07
   .197273733492E-07   .210312027518E-07   .224212053641E-07   .239030765797E-07   .254828882145E-07
   .271671133852E-07   .289626530321E-07   .308768641954E-07   .329175901594E-07   .350931925897E-07
   .374125857946E-07   .398852732500E-07   .425213865393E-07   .453317268664E-07   .483278093122E-07
   .515219100170E-07   .549271164802E-07   .585573811852E-07   .624275787681E-07   .665535669649E-07
   .709522515871E-07   .756416557913E-07   .806409939270E-07   .859707502657E-07   .916527629325E-07
   .977103133860E-07   .104168221811E-06   .111052948817E-06   .118392703857E-06   .126217560814E-06
   .134559581222E-06   .143452945639E-06   .152934093697E-06   .163041873404E-06   .173817700328E-06
   .185305727285E-06   .197553025254E-06   .210609776244E-06   .224529478909E-06   .239369167751E-06
   .255189646814E-06   .272055738821E-06   .290036550774E-06   .309205757118E-06   .329641901605E-06
   .351428719123E-06   .374655478785E-06   .399417349701E-06   .425815790919E-06   .453958967140E-06
   .483962191906E-06   .515948400086E-06   .550048651582E-06   .586402668325E-06   .625159406772E-06
   .666477668226E-06   .710526749503E-06   .757487136602E-06   .807551244212E-06   .860924204105E-06
   .917824705627E-06   .978485891738E-06   .104315631428E-05   .111210095236E-05   .118560229808E-05
   .126396151397E-05   .134749966692E-05   .143655904377E-05   .153150455364E-05   .163272522318E-05
   .174063579044E-05   .185567840420E-05   .197832443554E-05   .210907640920E-05   .224847006252E-05
   .239707654046E-05   .255550473576E-05   .272440378365E-05   .290446572148E-05   .309642832416E-05
   .330107812691E-05   .351925364780E-05   .375184882333E-05   .399981667091E-05   .426417319353E-05
   .454600154233E-05   .484645645441E-05   .516676898376E-05   .550825154492E-05   .587230328989E-05
   .626041584045E-05   .667417939915E-05   .711528926424E-05   .758555277504E-05   .808689671630E-05
   .862137521184E-05   .919117813972E-05   .979864010358E-05   .104462499966E-04   .111366611977E-04
   .118727024409E-04   .126573894038E-04   .134939370603E-04   .143857728511E-04   .153365507233E-04
   .163501660974E-04   .174307718242E-04   .185827951947E-04   .198109560746E-04   .211202862360E-04
   .225161499668E-04   .240042660409E-04   .255907311401E-04   .272820448226E-04   .290851361409E-04
   .310073920176E-04   .330566874950E-04   .352414179827E-04   .375705336344E-04   .400535759946E-04
   .427007170652E-04   .455228009512E-04   .485313882558E-04   .517388034061E-04   .551581851029E-04
   .588035400999E-04   .626898005326E-04   .668328850300E-04   .712497638585E-04   .759585283644E-04
   .809784649966E-04   .863301342121E-04   .920354545860E-04   .981177924666E-04   .104602057543E-03
   .111514804712E-03   .118884342659E-03   .126740849592E-03   .135116496609E-03   .144045579177E-03
   .153564657286E-03   .163712704820E-03   .174531268763E-03   .186064638883E-03   .198360028578E-03
   .211467767618E-03   .225441507554E-03   .240338440632E-03   .256219533086E-03   .273149773755E-03
   .291198439015E-03   .310439375101E-03   .330951298939E-03   .352818118698E-03   .376129275346E-03
   .400980106563E-03   .427472234468E-03   .455713978704E-03   .485820796504E-03   .517915751501E-03
   .552130013113E-03   .588603388483E-03   .627484889062E-03   .668933334039E-03   .713117993003E-03
   .760219270304E-03   .810429433795E-03   .863953390750E-03   .921009513960E-03   .981830521151E-03
   .104666441110E-02   .111577545997E-02   .118944528167E-02   .126797395615E-02   .135168122990E-02
   .144090779308E-02   .153601663792E-02   .163739450344E-02   .174545341162E-02   .186063230065E-02
   .198339876083E-02   .211425087953E-02   .225371920128E-02   .240236881000E-02   .256080154018E-02
   .272965832453E-02   .290962168573E-02   .310141838029E-02   .330582220296E-02   .352365696024E-02
   .375579962211E-02   .400318366114E-02   .426680258876E-02   .454771369817E-02   .484704202434E-02
   .516598453099E-02   .550581453508E-02   .586788637913E-02   .625364036183E-02   .666460793713E-02
   .710241719187E-02   .756879861178E-02   .806559114473E-02   .859474857001E-02   .915834618098E-02
   .975858778752E-02   .103978130432E-01   .110785051005E-01   .118032985940E-01   .125749879519E-01
   .133965360280E-01   .142710830487E-01   .152019558591E-01   .161926774514E-01   .172469767518E-01
   .183687986319E-01   .195623141077E-01   .208319306756E-01   .221823027241E-01   .236183419513E-01
   .251452276978E-01   .267684170935E-01   .284936548943E-01   .303269828658E-01   .322747485456E-01
   .343436131877E-01   .365405586644E-01   .388728930628E-01   .413482546764E-01   .439746140482E-01
   .467602736721E-01   .497138649063E-01   .528443415918E-01   .561609698033E-01   .596733130866E-01
   .633912124560E-01   .673247603407E-01   .714842675723E-01   .758802224048E-01   .805232404508E-01
   .854240043020E-01   .905931914806E-01   .960413892436E-01   .101778994634E+00   .107816098042E+00
   .114162348422E+00   .120826798173E+00   .127817725616E+00   .135142432875E+00   .142807016944E+00
   .150816111679E+00   .159172598486E+00   .167877283580E+00   .176928539850E+00   .186321911668E+00
   .196049681373E+00   .206100396761E+00   .216458359644E+00   .227103076590E+00   .238008674177E+00
   .249143282747E+00   .260468394574E+00   .271938204799E+00   .283498946333E+00   .295088233386E+00
   .306634432249E+00   .318056082597E+00   .329261397843E+00   .340147878951E+00   .350602082618E+00
   .360499591679E+00   .369705242876E+00   .378073674468E+00   .385450263140E+00   .391672525802E+00
   .396572066367E+00   .399977149628E+00   .401715982530E+00   .401620776201E+00   .399532647986E+00
   .395307399509E+00   .388822171804E+00   .379982929227E+00   .368732657205E+00   .355060072072E+00
   .339008531844E+00   .320684702952E+00   .300266379483E+00   .278008670220E+00   .254247569940E+00
   .229399724941E+00   .203957004570E+00   .178474324769E+00   .153549070072E+00   .129790472292E+00
   .107777485081E+00   .880041136903E-01   .708118992228E-01   .563104025428E-01   .443179220331E-01
   .345180076137E-01   .266032037492E-01   .202860583797E-01   .153032482812E-01   .114186366211E-01
   .842515796358E-02   .614515368459E-02   .442910539416E-02
 pseudo wavefunction
   .307114408707E-08   .327412336631E-08   .349051803297E-08   .372121474216E-08   .396715875018E-08
   .422935778757E-08   .450888618819E-08   .480688929123E-08   .512458813407E-08   .546328445538E-08
   .582436602886E-08   .620931234950E-08   .661970069567E-08   .705721259184E-08   .752364069844E-08
   .802089615717E-08   .855101642163E-08   .911617360562E-08   .971868338315E-08   .103610144767E-07
   .110457987724E-07   .117758421042E-07   .125541357503E-07   .133838686896E-07   .142684406682E-07
   .152114761298E-07   .162168390659E-07   .172886488487E-07   .184312971095E-07   .196494657331E-07
   .209481460410E-07   .223326592435E-07   .238086782420E-07   .253822508738E-07   .270598246922E-07
   .288482733844E-07   .307549249365E-07   .327875916584E-07   .349546021941E-07   .372648356480E-07
   .397277579653E-07   .423534607184E-07   .451527024554E-07   .481369527830E-07   .513184393612E-07
   .547101980053E-07   .583261260986E-07   .621810395357E-07   .662907334287E-07   .706720468264E-07
   .753429317104E-07   .803225265511E-07   .856312347262E-07   .912908081207E-07   .973244362536E-07
   .103756841294E-06   .110614379357E-06   .117925148496E-06   .125719103833E-06   .134028180291E-06
   .142886423450E-06   .152330129043E-06   .162397991671E-06   .173131263352E-06   .184573922551E-06
   .196772854366E-06   .209778042646E-06   .223642774787E-06   .238423860073E-06   .254181862447E-06
   .270981348661E-06   .288891152835E-06   .307984658494E-06   .328340099250E-06   .350040879352E-06
   .373175915429E-06   .397840000811E-06   .424134193937E-06   .452166232424E-06   .482050974514E-06
   .513910869686E-06   .547876460380E-06   .584086916878E-06   .622690607532E-06   .663845706686E-06
   .707720842772E-06   .754495789243E-06   .804362201167E-06   .857524400508E-06   .914200213303E-06
   .974621862170E-06   .103903691781E-05   .110770931337E-05   .118092042591E-05   .125897022924E-05
   .134217852305E-05   .143088624322E-05   .152545685876E-05   .162627786103E-05   .173376235144E-05
   .184835073401E-05   .197051251988E-05   .210074825103E-05   .223959155110E-05   .238761131184E-05
   .254541402398E-05   .271364626219E-05   .289299733429E-05   .308420210543E-05   .328804400908E-05
   .350535825688E-05   .373703526070E-05   .398402428080E-05   .424733731516E-05   .452805324577E-05
   .482732225896E-05   .514637055792E-05   .548650538652E-05   .584912038530E-05   .623570130124E-05
   .664783207500E-05   .708720133036E-05   .755560929252E-05   .805497516359E-05   .858734498549E-05
   .915490002242E-05   .975996569728E-05   .104050211186E-04   .110927092369E-04   .118258476727E-04
   .126074402589E-04   .134406893474E-04   .143290089273E-04   .152760386113E-04   .162856585451E-04
   .173620053028E-04   .185094888318E-04   .197328105180E-04   .210369824438E-04   .224273479188E-04
   .239096033673E-04   .254898216608E-04   .271744769926E-04   .289704713958E-04   .308851630122E-04
   .329263962292E-04   .351025338075E-04   .374224911298E-04   .398957727130E-04   .425325111307E-04
   .453435085066E-04   .483402807488E-04   .515351047035E-04   .549410684239E-04   .585721247575E-04
   .624431484713E-04   .665699971485E-04   .709695761057E-04   .756599075939E-04   .806602045683E-04
   .859909493261E-04   .916739773334E-04   .977325665838E-04   .104191532852E-03   .111077331233E-03
   .118418164373E-03   .126244097851E-03   .134587183152E-03   .143481588761E-03   .152963739897E-03
   .163072467450E-03   .173849166742E-03   .185337966743E-03   .197585910430E-03   .210643147038E-03
   .224563136949E-03   .239402870090E-03   .255223098682E-03   .272088585318E-03   .290068367349E-03
   .309236038655E-03   .329670049933E-03   .351454028717E-03   .374677120414E-03   .399434351726E-03
   .425827017924E-03   .453963095516E-03   .483957681968E-03   .515933464232E-03   .550021217960E-03
   .586360339373E-03   .625099411917E-03   .666396809950E-03   .710421341843E-03   .757352935040E-03
   .807383365776E-03   .860717036318E-03   .917571802778E-03   .978179856720E-03   .104278866401E-02
   .111166196452E-02   .118508083663E-02   .126334483045E-02   .134677317436E-02   .143570605923E-02
   .153050600532E-02   .163155931700E-02   .173927763074E-02   .185409956217E-02   .197649245820E-02
   .210695426088E-02   .224601548951E-02   .239424134838E-02   .255223396770E-02   .272063478549E-02
   .290012707906E-02   .309143865465E-02   .329534470463E-02   .351267084181E-02   .374429632109E-02
   .399115745894E-02   .425425126182E-02   .453463927495E-02   .483345166355E-02   .515189153859E-02
   .549123954027E-02   .585285869205E-02   .623819953891E-02   .664880558381E-02   .708631903620E-02
   .755248688705E-02   .804916732478E-02   .857833650632E-02   .914209569777E-02   .974267879831E-02
   .103824602612E-01   .110639634242E-01   .117898692620E-01   .125630255705E-01   .133864565923E-01
   .142633730914E-01   .151971828799E-01   .161915018012E-01   .172501651644E-01   .183772396280E-01
   .195770355186E-01   .208541195685E-01   .222133280496E-01   .236597802693E-01   .251988923885E-01
   .268363915080E-01   .285783299576E-01   .304310997096E-01   .324014468168E-01   .344964857615E-01
   .367237135752E-01   .390910235664E-01   .416067184642E-01   .442795227533E-01   .471185939399E-01
   .501335324464E-01   .533343897864E-01   .567316746206E-01   .603363562361E-01   .641598649259E-01
   .682140886764E-01   .725113654899E-01   .770644705825E-01   .818865976028E-01   .869913329119E-01
   .923926218538E-01   .981047258208E-01   .104142168790E+00   .110519671866E+00   .117252074222E+00
   .124354238671E+00   .131840939953E+00   .139726733653E+00   .148025803529E+00   .156751784840E+00
   .165917561179E+00   .175535032155E+00   .185614849201E+00   .196166116732E+00   .207196055891E+00
   .218709628192E+00   .230709116539E+00   .243193661415E+00   .256158750420E+00   .269595659994E+00
   .283490848951E+00   .297825304546E+00   .312573843170E+00   .327704369517E+00   .343177100179E+00
   .358943760289E+00   .374946764906E+00   .391118400592E+00   .407380026931E+00   .423641322766E+00
   .439799607567E+00   .455739274662E+00   .471331380007E+00   .486433437515E+00   .500889479649E+00
   .514530449650E+00   .527174998928E+00   .538630769389E+00   .548696244838E+00   .557163257300E+00
   .563820231762E+00   .568456245122E+00   .570865960138E+00   .570855471073E+00   .568249062117E+00
   .562896830400E+00   .554683060109E+00   .543535150942E+00   .529432801592E+00   .512417026949E+00
   .492598447912E+00   .470164139286E+00   .445382162090E+00   .418602754120E+00   .390255025181E+00
   .360837926212E+00   .330904267575E+00   .301036691801E+00   .271814807979E+00   .243773220748E+00
   .217350988270E+00   .192834163336E+00   .170302399594E+00
 ae wavefunction
  -.134728433946E-05  -.142826529140E-05  -.151375409979E-05  -.160402345062E-05  -.169936165745E-05
  -.180007363090E-05  -.190648190323E-05  -.201892771663E-05  -.213777217788E-05  -.226339748051E-05
  -.239620820637E-05  -.253663270186E-05  -.268512454355E-05  -.284216408909E-05  -.300826012911E-05
  -.318395163720E-05  -.336980963309E-05  -.356643915388E-05  -.377448135353E-05  -.399461574242E-05
  -.422756254470E-05  -.447408522160E-05  -.473499314549E-05  -.501114444597E-05  -.530344902639E-05
  -.561287178382E-05  -.594043601608E-05  -.628722705456E-05  -.665439612447E-05  -.704316444469E-05
  -.745482759186E-05  -.789076013921E-05  -.835242058750E-05  -.884135661190E-05  -.935921064020E-05
  -.990772578603E-05  -.104887521597E-04  -.111042535808E-04  -.117563147182E-04  -.124471486859E-04
  -.131791051230E-04  -.139546787898E-04  -.147765187128E-04  -.156474379150E-04  -.165704237671E-04
  -.175486490023E-04  -.185854834350E-04  -.196845064303E-04  -.208495201720E-04  -.220845637806E-04
  -.233939283352E-04  -.247821728578E-04  -.262541413259E-04  -.278149807686E-04  -.294701605252E-04
  -.312254927416E-04  -.330871541809E-04  -.350617094173E-04  -.371561355398E-04  -.393778484178E-04
  -.417347306550E-04  -.442351613420E-04  -.468880476969E-04  -.497028587476E-04  -.526896611507E-04
  -.558591573190E-04  -.592227259673E-04  -.627924652603E-04  -.665812387048E-04  -.706027239865E-04
  -.748714648946E-04  -.794029265749E-04  -.842135542965E-04  -.893208359459E-04  -.947433685078E-04
  -.100500928761E-03  -.106614548459E-03  -.113106594276E-03  -.120000852823E-03  -.127322621031E-03
  -.135098802260E-03  -.143358008459E-03  -.152130668786E-03  -.161449145044E-03  -.171347854403E-03
  -.181863399814E-03  -.193034708605E-03  -.204903179761E-03  -.217512840418E-03  -.230910512104E-03
  -.245145987404E-03  -.260272217517E-03  -.276345511579E-03  -.293425748264E-03  -.311576600500E-03
  -.330865774100E-03  -.351365261045E-03  -.373151608379E-03  -.396306203610E-03  -.420915577560E-03
  -.447071725722E-03  -.474872449200E-03  -.504421716353E-03  -.535830046357E-03  -.569214915939E-03
  -.604701190622E-03  -.642421581841E-03  -.682517131462E-03  -.725137725153E-03  -.770442636340E-03
  -.818601102312E-03  -.869792934381E-03  -.924209163863E-03  -.982052725874E-03  -.104353918300E-02
  -.110889749089E-02  -.117837080815E-02  -.125221735266E-02  -.133071130688E-02  -.141414377467E-02
  -.150282379212E-02  -.159707939521E-02  -.169725874713E-02  -.180373132807E-02  -.191688919066E-02
  -.203714828403E-02  -.216494984978E-02  -.230076189320E-02  -.244508073302E-02  -.259843263326E-02
  -.276137552068E-02  -.293450079153E-02  -.311843521110E-02  -.331384290997E-02  -.352142748061E-02
  -.374193417810E-02  -.397615222872E-02  -.422491725019E-02  -.448911378722E-02  -.476967796587E-02
  -.506760027047E-02  -.538392844614E-02  -.571977053037E-02  -.607629801637E-02  -.645474915106E-02
  -.685643236991E-02  -.728272987069E-02  -.773510132747E-02  -.821508774613E-02  -.872431546138E-02
  -.926450027533E-02  -.983745173621E-02  -.104450775553E-01  -.110893881594E-01  -.117725013734E-01
  -.124966472298E-01  -.132641728957E-01  -.140775477110E-01  -.149393683254E-01  -.158523639249E-01
  -.168194015304E-01  -.178434913542E-01  -.189277921938E-01  -.200756168416E-01  -.212904374846E-01
  -.225758910670E-01  -.239357845822E-01  -.253741002586E-01  -.268950005996E-01  -.285028332311E-01
  -.302021355091E-01  -.319976388297E-01  -.338942725826E-01  -.358971676797E-01  -.380116595873E-01
  -.402432907793E-01  -.425978125260E-01  -.450811859226E-01  -.476995820543E-01  -.504593811874E-01
  -.533671708642E-01  -.564297427753E-01  -.596540882686E-01  -.630473923468E-01  -.666170259969E-01
  -.703705366819E-01  -.743156368175E-01  -.784601900451E-01  -.828121951041E-01  -.873797670944E-01
  -.921711159132E-01  -.971945216392E-01  -.102458306633E+00  -.107970804109E+00  -.113740322936E+00
  -.119775108415E+00  -.126083298774E+00  -.132672877139E+00  -.139551618708E+00  -.146727032903E+00
  -.154206300235E+00  -.161996203670E+00  -.170103054266E+00  -.178532610893E+00  -.187289993857E+00
  -.196379592288E+00  -.205804965169E+00  -.215568735959E+00  -.225672480761E+00  -.236116610081E+00
  -.246900244273E+00  -.258021082820E+00  -.269475267705E+00  -.281257241197E+00  -.293359598485E+00
  -.305772935709E+00  -.318485694050E+00  -.331484000720E+00  -.344751507804E+00  -.358269230142E+00
  -.372015383589E+00  -.385965225211E+00  -.400090897164E+00  -.414361276143E+00  -.428741830332E+00
  -.443194485722E+00  -.457677503329E+00  -.472145368306E+00  -.486548691121E+00  -.500834120163E+00
  -.514944264416E+00  -.528817624942E+00  -.542388535015E+00  -.555587111272E+00  -.568339221793E+00
  -.580566481033E+00  -.592186284821E+00  -.603111900167E+00  -.613252623614E+00  -.622514017726E+00
  -.630798228660E+00  -.638004380606E+00  -.644029037822E+00  -.648766724370E+00  -.652110494395E+00
  -.653952550726E+00  -.654184912494E+00  -.652700133891E+00  -.649392074908E+00  -.644156723535E+00
  -.636893066669E+00  -.627504005977E+00  -.615897314261E+00  -.601986627133E+00  -.585692464963E+00
  -.566943279163E+00  -.545676516853E+00  -.521839696577E+00  -.495391487446E+00  -.466302782100E+00
  -.434557753077E+00  -.400154880184E+00  -.363107934749E+00  -.323446904732E+00  -.281218842771E+00
  -.236488617524E+00  -.189339547514E+00  -.139873896224E+00  -.882132081096E-01  -.344984675345E-01
   .211099333793E-01   .784324269309E-01   .137270706475E+00   .197408370915E+00   .258611787525E+00
   .320631204485E+00   .383202183802E+00   .446047480399E+00   .508879538369E+00   .571403731773E+00
   .633322185598E+00   .694337314121E+00   .754153291887E+00   .812473533870E+00   .868994345192E+00
   .923399026524E+00   .975358984180E+00   .102454392759E+01   .107063525187E+01   .111333543772E+01
   .115237211274E+01   .118749944555E+01   .121849924021E+01   .124518261199E+01   .126739224697E+01
   .128500492305E+01   .129793389456E+01   .130613079740E+01   .130958685551E+01   .130833330287E+01
   .130244103851E+01   .129201958913E+01   .127721547771E+01   .125821009702E+01   .123521717800E+01
   .120847992957E+01   .117826791377E+01   .114487370032E+01   .110860915849E+01   .106980171153E+01
   .102879074838E+01   .985923702665E+00   .941551987225E+00   .896026824599E+00   .849695042684E+00
   .802894925264E+00   .755952257508E+00   .709176730025E+00   .662858902717E+00   .617267868333E+00
   .572649750979E+00   .529227072697E+00   .487198919761E+00   .446741664001E+00   .408009711709E+00
   .371135396238E+00   .336226999456E+00   .303364623792E+00   .272595594907E+00   .243932902640E+00
   .217359097722E+00   .192834038609E+00   .170302399594E+00
 pseudo wavefunction
  -.190242258445E-08  -.202815825617E-08  -.216220409998E-08  -.230510935511E-08  -.245745956127E-08
  -.261987895795E-08  -.279303304207E-08  -.297763129488E-08  -.317443008892E-08  -.338423578722E-08
  -.360790804725E-08  -.384636334334E-08  -.410057872176E-08  -.437159580415E-08  -.466052505540E-08
  -.496855033368E-08  -.529693374119E-08  -.564702079548E-08  -.602024594260E-08  -.641813843454E-08
  -.684232859524E-08  -.729455450065E-08  -.777666910030E-08  -.829064780961E-08  -.883859660392E-08
  -.942276064754E-08  -.100455334930E-07  -.107094668886E-07  -.114172812335E-07  -.121718767248E-07
  -.129763452405E-07  -.138339830082E-07  -.147483041110E-07  -.157230548861E-07  -.167622292752E-07
  -.178700851892E-07  -.190511619542E-07  -.203102989116E-07  -.216526552459E-07  -.230837311249E-07
  -.246093902353E-07  -.262358838089E-07  -.279698762363E-07  -.298184723734E-07  -.317892466532E-07
  -.338902741207E-07  -.361301635199E-07  -.385180925672E-07  -.410638455558E-07  -.437778534464E-07
  -.466712366062E-07  -.497558503740E-07  -.530443336360E-07  -.565501606121E-07  -.602876960651E-07
  -.642722541591E-07  -.685201612070E-07  -.730488225664E-07  -.778767939556E-07  -.830238574840E-07
  -.885111027067E-07  -.943610130369E-07  -.100597557869E-06  -.107246290790E-06  -.114334454284E-06
  -.121891091353E-06  -.129947164518E-06  -.138535682684E-06  -.147691836394E-06  -.157453142009E-06
  -.167859595437E-06  -.178953836004E-06  -.190781321167E-06  -.203390512769E-06  -.216833075605E-06
  -.231164089114E-06  -.246442273054E-06  -.262730228108E-06  -.280094692373E-06  -.298606814814E-06
  -.318342446788E-06  -.339382452832E-06  -.361813041994E-06  -.385726121064E-06  -.411219671146E-06
  -.438398149123E-06  -.467372915651E-06  -.498262691440E-06  -.531194043696E-06  -.566301904708E-06
  -.603730124709E-06  -.643632061276E-06  -.686171207688E-06  -.731521862805E-06  -.779869845229E-06
  -.831413254653E-06  -.886363283540E-06  -.944945082434E-06  -.100739868247E-05  -.107397997884E-05
  -.114496177927E-05  -.122063492178E-05  -.130130946634E-05  -.138731596520E-05  -.147900681731E-05
  -.157675771212E-05  -.168096916889E-05  -.179206817768E-05  -.191050994880E-05  -.203677977788E-05
  -.217139503420E-05  -.231490728042E-05  -.246790453240E-05  -.263101366833E-05  -.280490299713E-05
  -.299028499653E-05  -.318791923208E-05  -.339861546914E-05  -.362323699046E-05  -.386270413297E-05
  -.411799805837E-05  -.439016477280E-05  -.468031941221E-05  -.498965081084E-05  -.531942637163E-05
  -.567099725842E-05  -.604580393128E-05  -.644538204754E-05  -.687136875277E-05  -.732550938744E-05
  -.780966463667E-05  -.832581815238E-05  -.887608467909E-05  -.946271871650E-05  -.100881237545E-04
  -.107548621180E-04  -.114656654628E-04  -.122234459639E-04  -.130313082437E-04  -.138925620878E-04
  -.148107360008E-04  -.157895916575E-04  -.168331393087E-04  -.179456542040E-04  -.191316941004E-04
  -.203961179258E-04  -.217441056758E-04  -.231811796245E-04  -.247132269352E-04  -.263465237647E-04
  -.280877609583E-04  -.299440714420E-04  -.319230594221E-04  -.340328315127E-04  -.362820299171E-04
  -.386798678000E-04  -.412361669928E-04  -.439613981876E-04  -.468667237822E-04  -.499640435525E-04
  -.532660433362E-04  -.567862469283E-04  -.605390713980E-04  -.645398860524E-04  -.688050752882E-04
  -.733521055844E-04  -.781995969108E-04  -.833673988403E-04  -.888766716751E-04  -.947499729153E-04
  -.101011349420E-03  -.107686435637E-03  -.114802558291E-03  -.122388847965E-03  -.130476358018E-03
  -.139098191315E-03  -.148289635295E-03  -.158088305906E-03  -.168534300992E-03  -.179670363752E-03
  -.191542056920E-03  -.204197948371E-03  -.217689808886E-03  -.232072822880E-03  -.247405812920E-03
  -.263751478937E-03  -.281176653072E-03  -.299752571179E-03  -.319555162050E-03  -.340665355505E-03
  -.363169410566E-03  -.387159264989E-03  -.412732907544E-03  -.439994774476E-03  -.469056171700E-03
  -.500035724356E-03  -.533059855482E-03  -.568263295612E-03  -.605789625278E-03  -.645791852472E-03
  -.688433027249E-03  -.733886895808E-03  -.782338596474E-03  -.833985400201E-03  -.889037498316E-03
  -.947718840397E-03  -.101026802535E-02  -.107693924889E-02  -.114800331079E-02  -.122374868558E-02
  -.130448266024E-02  -.139053254306E-02  -.148224694762E-02  -.157999715631E-02  -.168417856794E-02
  -.179521223407E-02  -.191354648905E-02  -.203965867901E-02  -.217405699486E-02  -.231728241512E-02
  -.246991076404E-02  -.263255489101E-02  -.280586697721E-02  -.299054097564E-02  -.318731519082E-02
  -.339697500438E-02  -.362035575294E-02  -.385834576458E-02  -.411188956003E-02  -.438199122474E-02
  -.466971795756E-02  -.497620380154E-02  -.530265356175E-02  -.565034691465E-02  -.602064271243E-02
  -.641498348513E-02  -.683490014191E-02  -.728201687155E-02  -.775805624040E-02  -.826484448412E-02
  -.880431698696E-02  -.937852393934E-02  -.998963616144E-02  -.106399510760E-01  -.113318988097E-01
  -.120680483953E-01  -.128511140441E-01  -.136839614455E-01  -.145696140486E-01  -.155112592653E-01
  -.165122545278E-01  -.175761331179E-01  -.187066096739E-01  -.199075852617E-01  -.211831518807E-01
  -.225375962530E-01  -.239754027211E-01  -.255012550518E-01  -.271200369156E-01  -.288368307752E-01
  -.306569148803E-01  -.325857580214E-01  -.346290116521E-01  -.367924989315E-01  -.390822001846E-01
  -.415042342106E-01  -.440648348019E-01  -.467703217540E-01  -.496270655658E-01  -.526414449345E-01
  -.558197960508E-01  -.591683525914E-01  -.626931751922E-01  -.664000690650E-01  -.702944882906E-01
  -.743814251937E-01  -.786652830689E-01  -.831497303938E-01  -.878375345372E-01  -.927303728444E-01
  -.978286188804E-01  -.103131101517E+00  -.108634834502E+00  -.114334714120E+00  -.120223182611E+00
  -.126289855109E+00  -.132521108054E+00  -.138899627382E+00  -.145403915191E+00  -.152007754263E+00
  -.158679630607E+00  -.165382115305E+00  -.172071208277E+00  -.178695648332E+00  -.185196195971E+00
  -.191504897977E+00  -.197544345927E+00  -.203226944426E+00  -.208454209131E+00  -.213116119636E+00
  -.217090557909E+00  -.220242869380E+00  -.222425590784E+00  -.223478396492E+00  -.223228323139E+00
  -.221490340573E+00  -.218068345285E+00  -.212756659902E+00  -.205342128478E+00  -.195606901312E+00
  -.183332003696E+00  -.168301779130E+00  -.150309287360E+00  -.129162719284E+00  -.104692862154E+00
  -.767616071311E-01  -.452714348659E-01  -.101757408377E-01   .285102310373E-01   .706981918187E-01
   .116215827361E+00   .164796666139E+00   .216071591879E+00   .269562967037E+00   .324682492296E+00
   .380734056239E+00   .436922900761E+00   .492372406548E+00   .546149646444E+00   .597300513867E+00
   .644894656862E+00   .688079586934E+00   .726154380507E+00
 ae wavefunction
   .144586662625E-05   .153277309145E-05   .162451725958E-05   .172139176964E-05   .182370603165E-05
   .193178726718E-05   .204598160882E-05   .216665526817E-05   .229419577490E-05   .242901328846E-05
   .257154199479E-05   .272224158329E-05   .288159881967E-05   .305012921036E-05   .322837877530E-05
   .341692592591E-05   .361638346469E-05   .382740070060E-05   .405066570224E-05   .428690770127E-05
   .453689962223E-05   .480146079053E-05   .508145980214E-05   .537781757796E-05   .569151060105E-05
   .602357437223E-05   .637510706640E-05   .674727343122E-05   .714130892974E-05   .755852414038E-05
   .800030944021E-05   .846813998333E-05   .896358099256E-05   .948829339025E-05   .100440397847E-04
   .106326908376E-04   .112562320364E-04   .119167708983E-04   .126165446328E-04   .133579282932E-04
   .141434434475E-04   .149757674042E-04   .158577430261E-04   .167923891724E-04   .177829118076E-04
   .188327158222E-04   .199454176088E-04   .211248584445E-04   .223751187289E-04   .237005331359E-04
   .251057067345E-04   .265955321428E-04   .281752077853E-04   .298502573132E-04   .316265502725E-04
   .335103240996E-04   .355082075285E-04   .376272454814E-04   .398749255800E-04   .422592063332E-04
   .447885471367E-04   .474719402021E-04   .503189445133E-04   .533397219726E-04   .565450758417E-04
   .599464916579E-04   .635561807477E-04   .673871265311E-04   .714531337722E-04   .757688809896E-04
   .803499761802E-04   .852130161153E-04   .903756494073E-04   .958566435766E-04   .101675956397E-03
   .107854811764E-03   .114415780378E-03   .121382865535E-03   .128781594373E-03   .136639114860E-03
   .144984298935E-03   .153847852151E-03   .163262430235E-03   .173262762973E-03   .183885785913E-03
   .195170780319E-03   .207159521909E-03   .219896438912E-03   .233428780009E-03   .247806792742E-03
   .263083913101E-03   .279316966810E-03   .296566383225E-03   .314896422423E-03   .334375416363E-03
   .355076024965E-03   .377075507935E-03   .400456013331E-03   .425304883841E-03   .451714981796E-03
   .479785034032E-03   .509619997783E-03   .541331448773E-03   .575037992846E-03   .610865702456E-03
   .648948579456E-03   .689429045664E-03   .732458462824E-03   .778197683526E-03   .826817634968E-03
   .878499937195E-03   .933437557898E-03   .991835505646E-03   .105391156371E-02   .111989706663E-02
   .119003772190E-02   .126459447897E-02   .134384444830E-02   .142808187285E-02   .151761915485E-02
   .161278794061E-02   .171394026620E-02   .182144976727E-02   .193571295580E-02   .205715056736E-02
   .218620898200E-02   .232336172227E-02   .246911103199E-02   .262398953934E-02   .278856200795E-02
   .296342717996E-02   .314921971476E-02   .334661222742E-02   .355631743081E-02   .377909038541E-02
   .401573086082E-02   .426708581302E-02   .453405198141E-02   .481757860952E-02   .511867029329E-02
   .543838996070E-02   .577786198617E-02   .613827544351E-02   .652088750003E-02   .692702695524E-02
   .735809792619E-02   .781558368184E-02   .830105062790E-02   .881615244323E-02   .936263436817E-02
   .994233764446E-02   .105572041055E-01   .112092809146E-01   .119007254484E-01   .126338103204E-01
   .134109285391E-01   .142345987931E-01   .151074708540E-01   .160323310870E-01   .170121080540E-01
   .180498781969E-01   .191488715795E-01   .203124776711E-01   .215442511448E-01   .228479176653E-01
   .242273796357E-01   .256867218668E-01   .272302171329E-01   .288623315678E-01   .305877298548E-01
   .324112801560E-01   .343380587215E-01   .363733541139E-01   .385226709741E-01   .407917332523E-01
   .431864868145E-01   .457131013338E-01   .483779713616E-01   .511877164683E-01   .541491803347E-01
   .572694286634E-01   .605557457709E-01   .640156297123E-01   .676567857775E-01   .714871181896E-01
   .755147198235E-01   .797478597538E-01   .841949684277E-01   .888646202513E-01   .937655133631E-01
   .989064463630E-01   .104296291751E+00   .109943965827E+00   .115858394785E+00   .122048476744E+00
   .128523039440E+00   .135290793304E+00   .142360279649E+00   .149739813704E+00   .157437422204E+00
   .165460775302E+00   .173817112524E+00   .182513162556E+00   .191555056633E+00   .200948235354E+00
   .210697348747E+00   .220806149478E+00   .231277379126E+00   .242112647477E+00   .253312304895E+00
   .264875307840E+00   .276799077732E+00   .289079353391E+00   .301710037425E+00   .314683037024E+00
   .327988099742E+00   .341612644981E+00   .355541592083E+00   .369757186045E+00   .384238822147E+00
   .398962870911E+00   .413902505100E+00   .429027530609E+00   .444304223292E+00   .459695173824E+00
   .475159142592E+00   .490650926290E+00   .506121237310E+00   .521516596139E+00   .536779236101E+00
   .551847019050E+00   .566653360699E+00   .581127165483E+00   .595192773566E+00   .608769926407E+00
   .621773761608E+00   .634114851308E+00   .645699300010E+00   .656428916661E+00   .666201471349E+00
   .674911039899E+00   .682448431951E+00   .688701692726E+00   .693556668047E+00   .696897625115E+00
   .698607926868E+00   .698570760844E+00   .696669925048E+00   .692790671913E+00   .686820610021E+00
   .678650660863E+00   .668176066843E+00   .655297445988E+00   .639921888021E+00   .621964086653E+00
   .601347501909E+00   .578005546306E+00   .551882787180E+00   .522936157109E+00   .491136162193E+00
   .456468077048E+00   .418933113144E+00   .378549545225E+00   .335353778417E+00   .289401336489E+00
   .240767749862E+00   .189549320575E+00   .135863740936E+00   .798505434608E-01   .216713621826E-01
  -.384900103713E-01  -.100427780948E+00  -.163914533871E+00  -.228701834958E+00  -.294521074373E+00
  -.361084584925E+00  -.428087115375E+00  -.495207797746E+00  -.562112794994E+00  -.628458764137E+00
  -.693896947750E+00  -.758076946644E+00  -.820648237847E+00  -.881257385060E+00  -.939541184632E+00
  -.995120448839E+00  -.104760148800E+01  -.109658742542E+01  -.114169287552E+01  -.118255427294E+01
  -.121883447160E+01  -.125022453767E+01  -.127644528446E+01  -.129724947858E+01  -.131242470064E+01
  -.132179650104E+01  -.132523141719E+01  -.132263948455E+01  -.131397601068E+01  -.129924252523E+01
  -.127848692759E+01  -.125180291265E+01  -.121932877722E+01  -.118124570767E+01  -.113777563736E+01
  -.108917874621E+01  -.103575065983E+01  -.977819385329E+00  -.915741862651E+00  -.849900419753E+00
  -.780699286360E+00  -.708560752903E+00  -.633921169126E+00  -.557226855538E+00  -.478930039458E+00
  -.399484948519E+00  -.319344225679E+00  -.238955817378E+00  -.158760456758E+00  -.791897395765E-01
  -.664690157032E-03   .764054517023E-01   .151624614761E+00   .224611877164E+00   .295004227555E+00
   .362459479424E+00   .426657211887E+00   .487294316508E+00   .544073125088E+00   .596685750853E+00
   .644803687605E+00   .688078998971E+00   .726154380507E+00
 pseudo wavefunction
   .987147868692E-05   .101924745489E-04   .105239083957E-04   .108661196445E-04   .112194587496E-04
   .115842875611E-04   .119609796956E-04   .123499209189E-04   .127515095407E-04   .131661568229E-04
   .135942874006E-04   .140363397170E-04   .144927664723E-04   .149640350874E-04   .154506281827E-04
   .159530440721E-04   .164717972734E-04   .170074190352E-04   .175604578812E-04   .181314801715E-04
   .187210706830E-04   .193298332080E-04   .199583911726E-04   .206073882752E-04   .212774891457E-04
   .219693800262E-04   .226837694734E-04   .234213890849E-04   .241829942477E-04   .249693649124E-04
   .257813063915E-04   .266196501842E-04   .274852548283E-04   .283790067787E-04   .293018213160E-04
   .302546434834E-04   .312384490544E-04   .322542455324E-04   .333030731823E-04   .343860060959E-04
   .355041532917E-04   .366586598510E-04   .378507080902E-04   .390815187716E-04   .403523523540E-04
   .416645102831E-04   .430193363244E-04   .444182179394E-04   .458625877067E-04   .473539247887E-04
   .488937564465E-04   .504836596042E-04   .521252624638E-04   .538202461722E-04   .555703465436E-04
   .573773558363E-04   .592431245888E-04   .611695635149E-04   .631586454600E-04   .652124074219E-04
   .673329526370E-04   .695224527337E-04   .717831499570E-04   .741173594643E-04   .765274716969E-04
   .790159548276E-04   .815853572886E-04   .842383103813E-04   .869775309714E-04   .898058242707E-04
   .927260867106E-04   .957413089079E-04   .988545787281E-04   .102069084447E-03   .105388118017E-03
   .108815078437E-03   .112353475236E-03   .116006932064E-03   .119779190405E-03   .123674113409E-03
   .127695689850E-03   .131848038206E-03   .136135410882E-03   .140562198565E-03   .145132934715E-03
   .149852300218E-03   .154725128169E-03   .159756408831E-03   .164951294741E-03   .170315105990E-03
   .175853335670E-03   .181571655500E-03   .187475921637E-03   .193572180672E-03   .199866675827E-03
   .206365853343E-03   .213076369090E-03   .220005095380E-03   .227159128008E-03   .234545793519E-03
   .242172656714E-03   .250047528399E-03   .258178473385E-03   .266573818751E-03   .275242162372E-03
   .284192381730E-03   .293433643006E-03   .302975410469E-03   .312827456176E-03   .322999869983E-03
   .333503069878E-03   .344347812660E-03   .355545204958E-03   .367106714613E-03   .379044182427E-03
   .391369834297E-03   .404096293744E-03   .417236594849E-03   .430804195612E-03   .444812991744E-03
   .459277330910E-03   .474212027436E-03   .489632377492E-03   .505554174776E-03   .521993726705E-03
   .538967871133E-03   .556493993618E-03   .574590045247E-03   .593274561048E-03   .612566679000E-03
   .632486159661E-03   .653053406441E-03   .674289486534E-03   .696216152536E-03   .718855864765E-03
   .742231814315E-03   .766367946861E-03   .791288987244E-03   .817020464855E-03   .843588739859E-03
   .871021030269E-03   .899345439912E-03   .928590987304E-03   .958787635483E-03   .989966322811E-03
   .102215899479E-02   .105539863692E-02   .108971930865E-02   .112515617842E-02   .116174555988E-02
   .119952494928E-02   .123853306415E-02   .127880988312E-02   .132039668725E-02   .136333610255E-02
   .140767214399E-02   .145345026099E-02   .150071738433E-02   .154952197473E-02   .159991407292E-02
   .165194535152E-02   .170566916851E-02   .176114062257E-02   .181841661027E-02   .187755588513E-02
   .193861911870E-02   .200166896371E-02   .206677011928E-02   .213398939842E-02   .220339579777E-02
   .227506056970E-02   .234905729690E-02   .242546196950E-02   .250435306484E-02   .258581162997E-02
   .266992136701E-02   .275676872146E-02   .284644297360E-02   .293903633303E-02   .303464403659E-02
   .313336444971E-02   .323529917130E-02   .334055314241E-02   .344923475884E-02   .356145598765E-02
   .367733248803E-02   .379698373651E-02   .392053315677E-02   .404810825421E-02   .417984075560E-02
   .431586675389E-02   .445632685851E-02   .460136635146E-02   .475113534925E-02   .490578897132E-02
   .506548751486E-02   .523039663669E-02   .540068754232E-02   .557653718267E-02   .575812845886E-02
   .594565043542E-02   .613929856240E-02   .633927490697E-02   .654578839486E-02   .675905506231E-02
   .697929831920E-02   .720674922382E-02   .744164677017E-02   .768423818845E-02   .793477925955E-02
   .819353464453E-02   .846077822985E-02   .873679348960E-02   .902187386570E-02   .931632316725E-02
   .962045599054E-02   .993459816087E-02   .102590871980E-01   .105942728064E-01   .109405173932E-01
   .112981966141E-01   .116676999512E-01   .120494313237E-01   .124438097349E-01   .128512699576E-01
   .132722632616E-01   .137072581853E-01   .141567413574E-01   .146212183692E-01   .151012147051E-01
   .155972767331E-01   .161099727625E-01   .166398941732E-01   .171876566221E-01   .177539013346E-01
   .183392964867E-01   .189445386870E-01   .195703545654E-01   .202175024790E-01   .208867743445E-01
   .215789976086E-01   .222950373676E-01   .230357986493E-01   .238022288722E-01   .245953204957E-01
   .254161138797E-01   .262657003700E-01   .271452256310E-01   .280558932450E-01   .289989686035E-01
   .299757831133E-01   .309877387464E-01   .320363129622E-01   .331230640333E-01   .342496368109E-01
   .354177689634E-01   .366292977321E-01   .378861672422E-01   .391904364177E-01   .405442875477E-01
   .419500355560E-01   .434101380289E-01   .449272060604E-01   .465040159762E-01   .481435220002E-01
   .498488699338E-01   .516234119153E-01   .534707223353E-01   .553946149804E-01   .573991614828E-01
   .594887111497E-01   .616679122494E-01   .639417348257E-01   .663154951091E-01   .687948815867E-01
   .713859827836E-01   .740953167976E-01   .769298626092E-01   .798970931729E-01   .830050102649E-01
   .862621810327E-01   .896777761487E-01   .932616094217E-01   .970241786607E-01   .100976707510E+00
   .105131187888E+00   .109500422569E+00   .114098067301E+00   .118938671746E+00   .124037718322E+00
   .129411657870E+00   .135077940814E+00   .141055042244E+00   .147362479055E+00   .154020816927E+00
   .161051664582E+00   .168477652296E+00   .176322391211E+00   .184610409446E+00   .193367060468E+00
   .202618398551E+00   .212391015536E+00   .222711832407E+00   .233607838526E+00   .245105770694E+00
   .257231723555E+00   .270010682294E+00   .283465968119E+00   .297618586778E+00   .312486470308E+00
   .328083602608E+00   .344419020205E+00   .361495681032E+00   .379309196212E+00   .397846423008E+00
   .417083921408E+00   .436986282532E+00   .457504344428E+00   .478573320076E+00   .500110873831E+00
   .522015196333E+00   .544163144132E+00   .566408529140E+00   .588580664190E+00   .610483294322E+00
   .631894068028E+00   .652564727663E+00   .672222221756E+00   .690570961882E+00   .707296459748E+00
   .722070582432E+00   .734558649979E+00   .744441892657E+00
 ae wavefunction
  -.542242084373E-03  -.559654185605E-03  -.577624459387E-03  -.596170736740E-03  -.615311414393E-03
  -.635065472474E-03  -.655452492742E-03  -.676492677372E-03  -.698206868288E-03  -.720616567110E-03
  -.743743955658E-03  -.767611917100E-03  -.792244057713E-03  -.817664729304E-03  -.843899052280E-03
  -.870972939405E-03  -.898913120264E-03  -.927747166442E-03  -.957503517447E-03  -.988211507331E-03
  -.101990139220E-02  -.105260437840E-02  -.108635265162E-02  -.112117940673E-02  -.115711887858E-02
  -.119420637356E-02  -.123247830218E-02  -.127197221249E-02  -.131272682442E-02  -.135478206520E-02
  -.139817910561E-02  -.144296039736E-02  -.148916971142E-02  -.153685217745E-02  -.158605432428E-02
  -.163682412146E-02  -.168921102199E-02  -.174326600609E-02  -.179904162622E-02  -.185659205323E-02
  -.191597312373E-02  -.197724238866E-02  -.204045916307E-02  -.210568457726E-02  -.217298162908E-02
  -.224241523760E-02  -.231405229802E-02  -.238796173798E-02  -.246421457518E-02  -.254288397628E-02
  -.262404531730E-02  -.270777624527E-02  -.279415674130E-02  -.288326918506E-02  -.297519842060E-02
  -.307003182361E-02  -.316785936999E-02  -.326877370592E-02  -.337287021913E-02  -.348024711171E-02
  -.359100547415E-02  -.370524936073E-02  -.382308586622E-02  -.394462520384E-02  -.406998078445E-02
  -.419926929695E-02  -.433261078980E-02  -.447012875364E-02  -.461195020495E-02  -.475820577066E-02
  -.490902977361E-02  -.506456031887E-02  -.522493938068E-02  -.539031289006E-02  -.556083082278E-02
  -.573664728777E-02  -.591792061565E-02  -.610481344733E-02  -.629749282245E-02  -.649613026749E-02
  -.670090188333E-02  -.691198843203E-02  -.712957542265E-02  -.735385319575E-02  -.758501700628E-02
  -.782326710470E-02  -.806880881572E-02  -.832185261462E-02  -.858261420045E-02  -.885131456591E-02
  -.912818006325E-02  -.941344246606E-02  -.970733902577E-02  -.100101125231E-01  -.103220113132E-01
  -.106432893641E-01  -.109742062878E-01  -.113150273630E-01  -.116660235493E-01  -.120274714911E-01
  -.123996535108E-01  -.127828575906E-01  -.131773773412E-01  -.135835119568E-01  -.140015661551E-01
  -.144318501006E-01  -.148746793107E-01  -.153303745428E-01  -.157992616600E-01  -.162816714759E-01
  -.167779395743E-01  -.172884061036E-01  -.178134155446E-01  -.183533164471E-01  -.189084611358E-01
  -.194792053820E-01  -.200659080392E-01  -.206689306391E-01  -.212886369471E-01  -.219253924731E-01
  -.225795639348E-01  -.232515186713E-01  -.239416240030E-01  -.246502465348E-01  -.253777513987E-01
  -.261245014328E-01  -.268908562915E-01  -.276771714848E-01  -.284837973408E-01  -.293110778874E-01
  -.301593496498E-01  -.310289403570E-01  -.319201675546E-01  -.328333371171E-01  -.337687416553E-01
  -.347266588136E-01  -.357073494507E-01  -.367110556990E-01  -.377379988965E-01  -.387883773852E-01
  -.398623641694E-01  -.409601044295E-01  -.420817128829E-01  -.432272709872E-01  -.443968239792E-01
  -.455903777431E-01  -.468078955021E-01  -.480492943275E-01  -.493144414584E-01  -.506031504281E-01
  -.519151769898E-01  -.532502148384E-01  -.546078911217E-01  -.559877617394E-01  -.573893064233E-01
  -.588119235989E-01  -.602549250235E-01  -.617175302018E-01  -.631988605773E-01  -.646979335020E-01
  -.662136559850E-01  -.677448182259E-01  -.692900869365E-01  -.708479984601E-01  -.724169516968E-01
  -.739952008469E-01  -.755808479867E-01  -.771718354939E-01  -.787659383429E-01  -.803607562930E-01
  -.819537059969E-01  -.835420130607E-01  -.851227040896E-01  -.866925987604E-01  -.882483019641E-01
  -.897861960697E-01  -.913024333632E-01  -.927929287239E-01  -.942533526063E-01  -.956791244008E-01
  -.970654062535E-01  -.984070974383E-01  -.996988293706E-01  -.100934961374E+00  -.102109577306E+00
  -.103216483170E+00  -.104249205842E+00  -.105200993040E+00  -.106064814704E+00  -.106833365926E+00
  -.107499071602E+00  -.108054092980E+00  -.108490336288E+00  -.108799463623E+00  -.108972906322E+00
  -.109001880984E+00  -.108877408394E+00  -.108590335528E+00  -.108131360882E+00  -.107491063328E+00
  -.106659934732E+00  -.105628416535E+00  -.104386940518E+00  -.102925973952E+00  -.101236069320E+00
  -.993079188026E-01  -.971324136609E-01  -.947007086768E-01  -.920042917393E-01  -.890350586595E-01
  -.857853932453E-01  -.822482526295E-01  -.784172577916E-01  -.742867891580E-01  -.698520871057E-01
  -.651093571218E-01  -.600558792979E-01  -.546901217533E-01  -.490118574885E-01  -.430222840709E-01
  -.367241454383E-01  -.301218549862E-01  -.232216189686E-01  -.160315590984E-01  -.856183309204E-02
  -.824751769255E-03   .716510877748E-02   .153908014668E-01   .238329104350E-01   .324694624804E-01
   .412758488254E-01   .502247580443E-01   .592861209021E-01   .684270680349E-01   .776119019703E-01
   .868020859257E-01   .959562529557E-01   .105030240060E+00   .113977152457E+00   .122747463028E+00
   .131289150820E+00   .139547880663E+00   .147467224131E+00   .154988920901E+00   .162053179326E+00
   .168599015601E+00   .174564631308E+00   .179887829376E+00   .184506468036E+00   .188358951831E+00
   .191384757855E+00   .193524994815E+00   .194722991948E+00   .194924914306E+00   .194080400637E+00
   .192143219536E+00   .189071939277E+00   .184830606026E+00   .179389424830E+00   .172725436856E+00
   .164823185894E+00   .155675366202E+00   .145283443015E+00   .133658236130E+00   .120820456173E+00
   .106801182329E+00   .916422698066E-01   .753966750223E-01   .581286867979E-01   .399140527605E-01
   .208399917767E-01   .100508548712E-02  -.194809556916E-01  -.404976553428E-01  -.619142669459E-01
  -.835904128424E-01  -.105376887958E+00  -.127116667157E+00  -.148646169600E+00  -.169796820123E+00
  -.190396855471E+00  -.210273101576E+00  -.229252155484E+00  -.247160363359E+00  -.263822649760E+00
  -.279061552137E+00  -.292698498702E+00  -.304557931623E+00  -.314472390108E+00  -.322286323685E+00
  -.327858236613E+00  -.331061993996E+00  -.331788001808E+00  -.329944503625E+00  -.325458965431E+00
  -.318279424938E+00  -.308375667976E+00  -.295740121931E+00  -.280388402176E+00  -.262359492390E+00
  -.241715571739E+00  -.218541518190E+00  -.192944122349E+00  -.165051044661E+00  -.135009544429E+00
  -.102985004260E+00  -.691592693484E-01  -.337288177141E-01   .309722599079E-02   .410991937344E-01
   .800490839701E-01   .119712867245E+00   .159852825967E+00   .200229865938E+00   .240605726698E+00
   .280745016601E+00   .320417015230E+00   .359397224918E+00   .397468714458E+00   .434423375599E+00
   .470063294906E+00   .504202511172E+00   .536669442007E+00   .567310130610E+00   .595991996141E+00
   .622606756847E+00   .647069808413E+00   .669312922196E+00   .689270083567E+00   .706862687784E+00
   .721993817983E+00   .734555361182E+00   .744441892657E+00
 pseudo wavefunction
   .162906645275E-05   .168203962996E-05   .173673536275E-05   .179320966435E-05   .185152036937E-05
   .191172719308E-05   .197389179252E-05   .203807782968E-05   .210435103668E-05   .217277928308E-05
   .224343264539E-05   .231638347882E-05   .239170649141E-05   .246947882052E-05   .254978011181E-05
   .263269260083E-05   .271830119723E-05   .280669357169E-05   .289796024575E-05   .299219468445E-05
   .308949339213E-05   .318995601116E-05   .329368542406E-05   .340078785885E-05   .351137299777E-05
   .362555408971E-05   .374344806610E-05   .386517566069E-05   .399086153322E-05   .412063439702E-05
   .425462715088E-05   .439297701513E-05   .453582567215E-05   .468331941151E-05   .483560927972E-05
   .499285123497E-05   .515520630682E-05   .532284076112E-05   .549592627026E-05   .567464008902E-05
   .585916523605E-05   .604969068131E-05   .624641153962E-05   .644952927043E-05   .665925188419E-05
   .687579415531E-05   .709937784216E-05   .733023191413E-05   .756859278615E-05   .781470456080E-05
   .806881927825E-05   .833119717444E-05   .860210694752E-05   .888182603309E-05   .917064088825E-05
   .946884728501E-05   .977675061320E-05   .100946661932E-04   .104229195987E-04   .107618469905E-04
   .111117954605E-04   .114731233871E-04   .118462008024E-04   .122314097711E-04   .126291447816E-04
   .130398131503E-04   .134638354385E-04   .139016458834E-04   .143536928422E-04   .148204392520E-04
   .153023631034E-04   .157999579303E-04   .163137333150E-04   .168442154106E-04   .173919474793E-04
   .179574904490E-04   .185414234880E-04   .191443445976E-04   .197668712251E-04   .204096408959E-04
   .210733118661E-04   .217585637973E-04   .224660984522E-04   .231966404135E-04   .239509378258E-04
   .247297631620E-04   .255339140146E-04   .263642139120E-04   .272215131627E-04   .281066897253E-04
   .290206501085E-04   .299643302992E-04   .309386967209E-04   .319447472241E-04   .329835121076E-04
   .340560551744E-04   .351634748209E-04   .363069051621E-04   .374875171931E-04   .387065199887E-04
   .399651619414E-04   .412647320408E-04   .426065611933E-04   .439920235855E-04   .454225380923E-04
   .468995697294E-04   .484246311552E-04   .499992842191E-04   .516251415623E-04   .533038682698E-04
   .550371835756E-04   .568268626247E-04   .586747382912E-04   .605827030564E-04   .625527109476E-04
   .645867795405E-04   .666869920258E-04   .688554993444E-04   .710945223911E-04   .734063542903E-04
   .757933627462E-04   .782579924692E-04   .808027676811E-04   .834302947028E-04   .861432646249E-04
   .889444560668E-04   .918367380247E-04   .948230728130E-04   .979065191010E-04   .101090235049E-03
   .104377481547E-03   .107771625558E-03   .111276143573E-03   .114894625171E-03   .118630776710E-03
   .122488425121E-03   .126471521839E-03   .130584146855E-03   .134830512906E-03   .139214969795E-03
   .143742008861E-03   .148416267586E-03   .153242534358E-03   .158225753391E-03   .163371029803E-03
   .168683634859E-03   .174169011391E-03   .179832779393E-03   .185680741795E-03   .191718890437E-03
   .197953412229E-03   .204390695518E-03   .211037336664E-03   .217900146835E-03   .224986159019E-03
   .232302635273E-03   .239857074209E-03   .247657218729E-03   .255711064013E-03   .264026865774E-03
   .272613148781E-03   .281478715675E-03   .290632656068E-03   .300084355947E-03   .309843507396E-03
   .319920118636E-03   .330324524404E-03   .341067396680E-03   .352159755769E-03   .363612981762E-03
   .375438826377E-03   .387649425203E-03   .400257310356E-03   .413275423567E-03   .426717129711E-03
   .440596230800E-03   .454926980454E-03   .469724098866E-03   .485002788284E-03   .500778749030E-03
   .517068196068E-03   .533887876152E-03   .551255085574E-03   .569187688533E-03   .587704136149E-03
   .606823486159E-03   .626565423301E-03   .646950280440E-03   .667999060444E-03   .689733458863E-03
   .712175887419E-03   .735349498374E-03   .759278209784E-03   .783986731699E-03   .809500593342E-03
   .835846171313E-03   .863050718868E-03   .891142396321E-03   .920150302622E-03   .950104508171E-03
   .981036088923E-03   .101297716185E-02   .104596092186E-02   .108002168013E-02   .111519490415E-02
   .115151725930E-02   .118902665227E-02   .122776227628E-02   .126776465825E-02   .130907570805E-02
   .135173876991E-02   .139579867613E-02   .144130180323E-02   .148829613069E-02   .153683130238E-02
   .158695869097E-02   .163873146533E-02   .169220466130E-02   .174743525579E-02   .180448224478E-02
   .186340672507E-02   .192427198029E-02   .198714357145E-02   .205208943208E-02   .211917996860E-02
   .218848816598E-02   .226008969923E-02   .233406305097E-02   .241048963567E-02   .248945393070E-02
   .257104361503E-02   .265534971570E-02   .274246676285E-02   .283249295376E-02   .292553032639E-02
   .302168494317E-02   .312106708562E-02   .322379146036E-02   .332997741731E-02   .343974918067E-02
   .355323609341E-02   .367057287596E-02   .379189989974E-02   .391736347620E-02   .404711616199E-02
   .418131708073E-02   .432013226192E-02   .446373499712E-02   .461230621376E-02   .476603486634E-02
   .492511834472E-02   .508976289869E-02   .526018407791E-02   .543660718517E-02   .561926774096E-02
   .580841195588E-02   .600429720696E-02   .620719251231E-02   .641737899748E-02   .663515034486E-02
   .686081321548E-02   .709468763020E-02   .733710729411E-02   .758841984460E-02   .784898699932E-02
   .811918457529E-02   .839940234464E-02   .869004368562E-02   .899152497932E-02   .930427469306E-02
   .962873208048E-02   .996534541513E-02   .103145696592E-01   .106768634515E-01   .110526852780E-01
   .114424886641E-01   .118467162018E-01   .122657921891E-01   .127001136271E-01   .131500392741E-01
   .136158764076E-01   .140978648917E-01   .145961580816E-01   .151108000243E-01   .156416983346E-01
   .161885920310E-01   .167510135127E-01   .173282437429E-01   .179192595727E-01   .185226719990E-01
   .191366539897E-01   .197588563422E-01   .203863098525E-01   .210153118816E-01   .216412951962E-01
   .222586767516E-01   .228606838741E-01   .234391550945E-01   .239843126982E-01   .244845039005E-01
   .249259074472E-01   .252922024021E-01   .255641959409E-01   .257194071637E-01   .257316043064E-01
   .255702933219E-01   .252001566892E-01   .245804425522E-01   .236643059844E-01   .223981064163E-01
   .207206681569E-01   .185625146157E-01   .158450914083E-01   .124799991422E-01   .836826346137E-02
   .339967797374E-02  -.254773490496E-02  -.960808938208E-02  -.179277600835E-01  -.276651830630E-01
  -.389902388289E-01  -.520831079089E-01  -.671324757838E-01  -.843329521442E-01  -.103881560976E+00
  -.125973155116E+00  -.150794614351E+00  -.178517703179E+00  -.209290496962E+00  -.243227337728E+00
  -.280397358162E+00  -.320811718891E+00  -.364414251029E+00
 ae wavefunction
   .558664769974E-04   .576604227595E-04   .595118763353E-04   .614226748339E-04   .633947136494E-04
   .654299482825E-04   .675303962198E-04   .696981388684E-04   .719353235488E-04   .742441655490E-04
   .766269502374E-04   .790860352421E-04   .816238526924E-04   .842429115290E-04   .869457998809E-04
   .897351875133E-04   .926138283477E-04   .955845630564E-04   .986503217336E-04   .101814126637E-03
   .105079095025E-03   .108448442056E-03   .111925483791E-03   .115513640269E-03   .119216438672E-03
   .123037516588E-03   .126980625360E-03   .131049633529E-03   .135248530380E-03   .139581429582E-03
   .144052572926E-03   .148666334180E-03   .153427223036E-03   .158339889168E-03   .163409126410E-03
   .168639877033E-03   .174037236145E-03   .179606456210E-03   .185352951677E-03   .191282303738E-03
   .197400265211E-03   .203712765540E-03   .210225915931E-03   .216946014612E-03   .223879552231E-03
   .231033217376E-03   .238413902244E-03   .246028708434E-03   .253884952886E-03   .261990173952E-03
   .270352137619E-03   .278978843859E-03   .287878533130E-03   .297059693019E-03   .306531065024E-03
   .316301651483E-03   .326380722645E-03   .336777823881E-03   .347502783036E-03   .358565717928E-03
   .369977043977E-03   .381747481976E-03   .393888065990E-03   .406410151395E-03   .419325423035E-03
   .432645903509E-03   .446383961569E-03   .460552320636E-03   .475164067425E-03   .490232660655E-03
   .505771939868E-03   .521796134317E-03   .538319871929E-03   .555358188335E-03   .572926535937E-03
   .591040793018E-03   .609717272872E-03   .628972732934E-03   .648824383896E-03   .669289898791E-03
   .690387422022E-03   .712135578307E-03   .734553481530E-03   .757660743450E-03   .781477482256E-03
   .806024330926E-03   .831322445359E-03   .857393512237E-03   .884259756590E-03   .911943949000E-03
   .940469412407E-03   .969860028494E-03   .100014024352E-02   .103133507363E-02   .106347010956E-02
   .109657152056E-02   .113066605768E-02   .116578105613E-02   .120194443670E-02   .123918470629E-02
   .127753095719E-02   .131701286522E-02   .135766068661E-02   .139950525335E-02   .144257796708E-02
   .148691079123E-02   .153253624140E-02   .157948737380E-02   .162779777148E-02   .167750152837E-02
   .172863323083E-02   .178122793658E-02   .183532115078E-02   .189094879904E-02   .194814719727E-02
   .200695301792E-02   .206740325259E-02   .212953517056E-02   .219338627313E-02   .225899424340E-02
   .232639689115E-02   .239563209266E-02   .246673772498E-02   .253975159431E-02   .261471135834E-02
   .269165444183E-02   .277061794537E-02   .285163854666E-02   .293475239399E-02   .301999499148E-02
   .310740107554E-02   .319700448220E-02   .328883800457E-02   .338293324024E-02   .347932042776E-02
   .357802827185E-02   .367908375674E-02   .378251194702E-02   .388833577535E-02   .399657581662E-02
   .410725004767E-02   .422037359223E-02   .433595845018E-02   .445401321072E-02   .457454274861E-02
   .469754790308E-02   .482302513854E-02   .495096618664E-02   .508135766906E-02   .521418070038E-02
   .534941047053E-02   .548701580638E-02   .562695871186E-02   .576919388626E-02   .591366822040E-02
   .606032027036E-02   .620907970842E-02   .635986675141E-02   .651259156612E-02   .666715365218E-02
   .682344120249E-02   .698133044166E-02   .714068494309E-02   .730135492542E-02   .746317652937E-02
   .762597107616E-02   .778954430905E-02   .795368561968E-02   .811816726147E-02   .828274355224E-02
   .844715006905E-02   .861110283836E-02   .877429752512E-02   .893640862485E-02   .909708866337E-02
   .925596740913E-02   .941265110391E-02   .956672171822E-02   .971773623807E-02   .986522599097E-02
   .100086960192E-01   .101476245095E-01   .102814622889E-01   .104096323976E-01   .105315297493E-01
   .106465208930E-01   .107539438874E-01   .108531083033E-01   .109432953687E-01   .110237582715E-01
   .110937226377E-01   .111523872012E-01   .111989246851E-01   .112324829116E-01   .112521861626E-01
   .112571368084E-01   .112464172290E-01   .112190920452E-01   .111742106851E-01   .111108103035E-01
   .110279190797E-01   .109245599110E-01   .107997545247E-01   .106525280277E-01   .104819139107E-01
   .102869595252E-01   .100667320461E-01   .982032493386E-02   .954686490274E-02   .924551940323E-02
   .891550461820E-02   .855609397081E-02   .816662713547E-02   .774651953806E-02   .729527232504E-02
   .681248277403E-02   .629785511089E-02   .575121168976E-02   .517250448330E-02   .456182682052E-02
   .391942529798E-02   .324571177852E-02   .254127537796E-02   .180689432685E-02   .104354757987E-02
   .252426033279E-03  -.565056798375E-03  -.140725479771E-02  -.227228009680E-02  -.315799489350E-02
  -.406200433324E-02  -.498165053082E-02  -.591400779341E-02  -.685587912037E-02  -.780379410936E-02
  -.875400848944E-02  -.970250561385E-02  -.106450003480E-01  -.115769458462E-01  -.124935436892E-01
  -.133897577359E-01  -.142603318568E-01  -.150998115189E-01  -.159025690721E-01  -.166628325505E-01
  -.173747178566E-01  -.180322642341E-01  -.186294729521E-01  -.191603490824E-01  -.196189461876E-01
  -.199994136529E-01  -.202960463294E-01  -.205033361048E-01  -.206160249617E-01  -.206291590665E-01
  -.205381433761E-01  -.203387962412E-01  -.200274034213E-01  -.196007709184E-01  -.190562759639E-01
  -.183919154746E-01  -.176063512325E-01  -.166989510005E-01  -.156698247403E-01  -.145198550566E-01
  -.132507209613E-01  -.118649140470E-01  -.103657461798E-01  -.875734790570E-02  -.704465690499E-02
  -.523339605580E-02  -.333004096101E-02  -.134177712256E-02   .723552783664E-03   .285751101348E-02
   .505113607562E-02   .729502408245E-02   .957942259119E-02   .118943411190E-01   .142296821100E-01
   .165753886595E-01   .189215848097E-01   .212586537321E-01   .235771872915E-01   .258677952990E-01
   .281208901510E-01   .303266499610E-01   .324752461768E-01   .345571714503E-01   .365634402440E-01
   .384856027836E-01   .403156449774E-01   .420458467818E-01   .436686283730E-01   .451763860008E-01
   .465613083512E-01   .478151610570E-01   .489290283313E-01   .498930047232E-01   .506958348091E-01
   .513245027615E-01   .517637764733E-01   .519957125700E-01   .519991294872E-01   .517490562723E-01
   .512161650248E-01   .503661950989E-01   .491593770234E-01   .475498566380E-01   .454851406383E-01
   .429055797691E-01   .397438766599E-01   .359246362287E-01   .313639711873E-01   .259691805549E-01
   .196385234536E-01   .122611173508E-01   .371699510273E-02  -.612264376791E-02  -.173949580874E-01
  -.302447532883E-01  -.448235486483E-01  -.612884791845E-01  -.798011228541E-01  -.100526320982E+00
  -.123630866746E+00  -.149281451675E+00  -.177640634159E+00  -.208859612328E+00  -.243068186653E+00
  -.280364610067E+00  -.320808124828E+00  -.364414251029E+00
 pseudo wavefunction
   .123071488383E-12   .135472056341E-12   .149122093917E-12   .164147496500E-12   .180686844580E-12
   .198892681886E-12   .218932922314E-12   .240992398604E-12   .265274567070E-12   .292003384094E-12
   .321425371694E-12   .353811891214E-12   .389461646114E-12   .428703436933E-12   .471899193847E-12
   .519447314774E-12   .571786339836E-12   .629398996044E-12   .692816649531E-12   .762624206385E-12
   .839465507279E-12   .924049265671E-12   .101715560432E-11   .111964325043E-11   .123245745575E-11
   .135663871469E-11   .149333236092E-11   .164379913085E-11   .180942679152E-11   .199174294005E-11
   .219242909281E-11   .241333619422E-11   .265650168806E-11   .292416830909E-11   .321880476786E-11
   .354312851991E-11   .390013082905E-11   .429310435597E-11   .472567352679E-11   .520182796139E-11
   .572595926998E-11   .630290155726E-11   .693797600779E-11   .763703996364E-11   .840654094715E-11
   .925357612691E-11   .101859577755E-10   .112122853228E-10   .123420246688E-10   .135855954891E-10
   .149544673354E-10   .164612654209E-10   .181198870633E-10   .199456298605E-10   .219553327822E-10
   .241675314763E-10   .266026292252E-10   .292830851263E-10   .322336212344E-10   .354814505748E-10
   .390565281309E-10   .429918271219E-10   .473236431165E-10   .520919287899E-10   .573406624106E-10
   .631182534546E-10   .694779890898E-10   .764785256474E-10   .841844296135E-10   .926667731301E-10
   .102003789499E-09   .112281594731E-09   .123594981804E-09   .136048294941E-09   .149756391985E-09
   .164845703742E-09   .181455400060E-09   .199738673398E-09   .219864151736E-09   .242017453839E-09
   .266402901225E-09   .293245402645E-09   .322792528418E-09   .355316793798E-09   .391118172388E-09
   .430526862817E-09   .473906334179E-09   .521656678328E-09   .574218299942E-09   .632075978398E-09
   .695763338915E-09   .765867774199E-09   .843035861991E-09   .927979328479E-09   .102148161257E-08
   .112440509157E-08   .123769903493E-08   .136240835936E-08   .149968326612E-08   .165078984938E-08
   .181712177335E-08   .200021312616E-08   .220175256866E-08   .242359890900E-08   .266779824640E-08
   .293660284225E-08   .323249189275E-08   .355819439441E-08   .391671431354E-08   .431135829170E-08
   .474576614268E-08   .522394442235E-08   .575030338081E-08   .632969763785E-08   .696747095668E-08
   .766950552893E-08   .844227622552E-08   .929291031360E-08   .102292531904E-07   .112599407402E-07
   .123944789817E-07   .136433317402E-07   .150180171539E-07   .165312139026E-07   .181968781407E-07
   .200303722111E-07   .220486063281E-07   .242701945350E-07   .267156263756E-07   .294074558621E-07
   .323705094823E-07   .356321151642E-07   .392223543094E-07   .431743392195E-07   .475245184745E-07
   .523130130774E-07   .575839864671E-07   .633860518092E-07   .697727203227E-07   .768028947742E-07
   .845414126924E-07   .930596443093E-07   .102436150744E-06   .112757408495E-06   .124118606924E-06
   .136624526081E-06   .150390502966E-06   .165543495135E-06   .182223251455E-06   .200583600807E-06
   .220793870606E-06   .243040448226E-06   .267528499719E-06   .294483861669E-06   .324155123620E-06
   .356815920276E-06   .392767454599E-06   .432341275049E-06   .475902332576E-06   .523852345525E-06
   .576633503467E-06   .634732544077E-06   .698685240635E-06   .769081341479E-06   .846570006935E-06
   .931865793785E-06   .102575524242E-05   .112910412731E-05   .124286543764E-05   .136808816153E-05
   .150592695468E-05   .165765278265E-05   .182466463451E-05   .200850241583E-05   .221086113958E-05
   .243360654559E-05   .267879229224E-05   .294867887854E-05   .324575447058E-05   .357275782396E-05
   .393270351284E-05   .432890969765E-05   .476502868641E-05   .524508057074E-05   .577349024528E-05
   .635512815058E-05   .699535511342E-05   .770007169614E-05   .847577250767E-05   .932960597438E-05
   .102694401186E-04   .113039349480E-04   .124426221179E-04   .136959925975E-04   .150755931407E-04
   .165941324446E-04   .182655979666E-04   .201053844661E-04   .221304354461E-04   .243593987831E-04
   .268127979665E-04   .295132205065E-04   .324855252248E-04   .357570703155E-04   .393579642469E-04
   .433213417817E-04   .476836676204E-04   .524850704160E-04   .577697101831E-04   .635861824204E-04
   .699879625933E-04   .770338949808E-04   .847887302832E-04   .933237168192E-04   .102717250612E-03
   .113055590177E-03   .124433642400E-03   .136955826496E-03   .150737023734E-03   .165903621352E-03
   .182594659871E-03   .200963093951E-03   .221177177840E-03   .243421987569E-03   .267901093179E-03
   .294838395501E-03   .324480143417E-03   .357097148971E-03   .392987219348E-03   .432477826488E-03
   .475929036978E-03   .523736726978E-03   .576336109137E-03   .634205600879E-03   .697871066057E-03
   .767910464783E-03   .844958949255E-03   .929714446679E-03   .102294377383E-02   .112548933158E-02
   .123827643155E-02   .136232131152E-02   .149873990031E-02   .164875739804E-02   .181371874209E-02
   .199510003473E-02   .219452101337E-02   .241375865022E-02   .265476197351E-02   .291966820837E-02
   .321082034095E-02   .353078621512E-02   .388237927636E-02   .426868108235E-02   .469306570438E-02
   .515922614719E-02   .567120291746E-02   .623341487253E-02   .685069248031E-02   .752831361872E-02
   .827204203761E-02   .908816859727E-02   .998355538495E-02   .109656827929E-01   .120426996179E-01
   .132234762113E-01   .145176606693E-01   .159357380057E-01   .174890921858E-01   .191900708288E-01
   .210520522955E-01   .230895147695E-01   .253181068133E-01   .277547187257E-01   .304175538528E-01
   .333261987905E-01   .365016911788E-01   .399665835049E-01   .437450010145E-01   .478626914649E-01
   .523470640407E-01   .572272142945E-01   .625339314594E-01   .682996839178E-01   .745585779981E-01
   .813462846110E-01   .886999275454E-01   .966579265188E-01   .105259787358E+00   .114545830968E+00
   .124556852114E+00   .135333698446E+00   .146916759841E+00   .159345357940E+00   .172657025885E+00
   .186886668896E+00   .202065597394E+00   .218220426304E+00   .235371836880E+00   .253533201313E+00
   .272709075537E+00   .292893572515E+00   .314068636837E+00   .336202252239E+00   .359246626614E+00
   .383136414564E+00   .407787055447E+00   .433093325219E+00   .458928222672E+00   .485142334328E+00
   .511563846138E+00   .537999392518E+00   .564235951810E+00   .590044008664E+00   .615182203951E+00
   .639403676164E+00   .662464258478E+00   .684132625064E+00   .704202370416E+00   .722505847710E+00
   .738929378044E+00   .753429165519E+00   .766046910513E+00   .776923708727E+00   .786310369616E+00
   .794571811417E+00   .802182735993E+00   .809711423208E+00   .817788306338E+00   .827056121721E+00
   .838099019636E+00   .851349252462E+00   .866997046100E+00
 ae wavefunction
   .364162612847E-10   .399027746019E-10   .436842130408E-10   .477886602438E-10   .522466387590E-10
   .570913433867E-10   .623588952130E-10   .680886186867E-10   .743233438506E-10   .811097359519E-10
   .884986555871E-10   .965455516003E-10   .105310890625E-09   .114860626003E-09   .125266710677E-09
   .136607657467E-09   .148969152116E-09   .162444722849E-09   .177136473240E-09   .193155884803E-09
   .210624692860E-09   .229675846660E-09   .250454559451E-09   .273119458125E-09   .297843840681E-09
   .324817054381E-09   .354246002799E-09   .386356797198E-09   .421396564764E-09   .459635428384E-09
   .501368675672E-09   .546919134786E-09   .596639776818E-09   .650916567464E-09   .710171591358E-09
   .774866475807E-09   .845506142942E-09   .922642922100E-09   .100688105738E-08   .109888164886E-08
   .119936806963E-08   .130913190483E-08   .142903946376E-08   .156003892072E-08   .170316814595E-08
   .185956329409E-08   .203046822408E-08   .221724483171E-08   .242138438419E-08   .264451995463E-08
   .288844006415E-08   .315510364965E-08   .344665648860E-08   .376544922055E-08   .411405712467E-08
   .449530182582E-08   .491227511786E-08   .536836510740E-08   .586728491773E-08   .641310419047E-08
   .701028366921E-08   .766371316797E-08   .837875325029E-08   .916128099453E-08   .100177402361E-07
   .109551967399E-07   .119813987749E-07   .131048436351E-07   .143348506829E-07   .156816415690E-07
   .171564283180E-07   .187715100744E-07   .205403793515E-07   .224778387174E-07   .246001289571E-07
   .269250698336E-07   .294722146898E-07   .322630202590E-07   .353210331853E-07   .386720948881E-07
   .423445665963E-07   .463695765229E-07   .507812913753E-07   .556172145827E-07   .609185138915E-07
   .667303812028E-07   .731024278351E-07   .800891187008E-07   .877502492194E-07   .961514691642E-07
   .105364858111E-06   .115469557445E-06   .126552464639E-06   .138708995789E-06   .152043923176E-06
   .166672295226E-06   .182720446896E-06   .200327109419E-06   .219644629118E-06   .240840305967E-06
   .264097863638E-06   .289619063909E-06   .317625479529E-06   .348360441050E-06   .382091174608E-06
   .419111149300E-06   .459742654567E-06   .504339630083E-06   .553290772586E-06   .607022946829E-06
   .666004929943E-06   .730751521849E-06   .801828057054E-06   .879855356834E-06   .965515164453E-06
   .105955611009E-05   .116280025670E-05   .127615028289E-05   .140059736418E-05   .153722981990E-05
   .168724259939E-05   .185194768800E-05   .203278552122E-05   .223133750333E-05   .244933973626E-05
   .268869807416E-05   .295150463000E-05   .324005587231E-05   .355687246329E-05   .390472100289E-05
   .428663785972E-05   .470595528564E-05   .516633002907E-05   .567177468219E-05   .622669201861E-05
   .683591260124E-05   .750473596587E-05   .823897571371E-05   .904500887602E-05   .992982994667E-05
   .109011100143E-04   .119672614638E-04   .131375087592E-04   .144219658645E-04   .158317209091E-04
   .173789287572E-04   .190769121968E-04   .209402725295E-04   .229850104048E-04   .252286578196E-04
   .276904222794E-04   .303913442030E-04   .333544687429E-04   .366050332939E-04   .401706720638E-04
   .440816391981E-04   .483710520690E-04   .530751564708E-04   .582336156042E-04   .638898248810E-04
   .700912547408E-04   .768898238440E-04   .843423051851E-04   .925107678667E-04   .101463057481E-03
   .111273318262E-03   .122022560414E-03   .133799276244E-03   .146700109026E-03   .160830578754E-03
   .176305869259E-03   .193251681454E-03   .211805157802E-03   .232115883402E-03   .254346969466E-03
   .278676225296E-03   .305297425238E-03   .334421677475E-03   .366278901907E-03   .401119424759E-03
   .439215697948E-03   .480864151674E-03   .526387189052E-03   .576135332051E-03   .630489528357E-03
   .689863629164E-03   .754707048260E-03   .825507613098E-03   .902794618832E-03   .987142096564E-03
   .107917230726E-02   .117955947293E-02   .128903375669E-02   .140838550349E-02   .153846975288E-02
   .168021103536E-02   .183460846311E-02   .200274112574E-02   .218577380085E-02   .238496298841E-02
   .260166327705E-02   .283733404880E-02   .309354652775E-02   .337199117584E-02   .367448543741E-02
   .400298183136E-02   .435957638729E-02   .474651741888E-02   .516621462408E-02   .562124849820E-02
   .611438004120E-02   .664856073611E-02   .722694277011E-02   .785288946426E-02   .852998587180E-02
   .926204949870E-02   .100531410937E-01   .109075754480E-01   .118299321394E-01   .128250661481E-01
   .138981182669E-01   .150545252234E-01   .163000294262E-01   .176406882407E-01   .190828826921E-01
   .206333254758E-01   .222990681247E-01   .240875071397E-01   .260063888102E-01   .280638123651E-01
   .302682309794E-01   .326284500727E-01   .351536222909E-01   .378532386091E-01   .407371151551E-01
   .438153756190E-01   .470984294411E-01   .505969462786E-01   .543218274529E-01   .582841750516E-01
   .624952590496E-01   .669664822840E-01   .717093425716E-01   .767353909770E-01   .820561852765E-01
   .876832380420E-01   .936279591025E-01   .999015924331E-01   .106515147548E+00   .113479325472E+00
   .120804439225E+00   .128500328693E+00   .136576269804E+00   .145040877911E+00   .153902005508E+00
   .163166634463E+00   .172840763291E+00   .182929290071E+00   .193435892087E+00   .204362903338E+00
   .215711191603E+00   .227480036931E+00   .239667013788E+00   .252267879332E+00   .265276470379E+00
   .278684611557E+00   .292482036785E+00   .306656325449E+00   .321192853658E+00   .336074759577E+00
   .351282920649E+00   .366795940161E+00   .382590142265E+00   .398639579813E+00   .414916070627E+00
   .431389296445E+00   .448027025089E+00   .464795544227E+00   .481660402252E+00   .498587483879E+00
   .515544212697E+00   .532500216326E+00   .549426313934E+00   .566290869096E+00   .583054117619E+00
   .599663546485E+00   .616054190790E+00   .632154364655E+00   .647892620189E+00   .663201707826E+00
   .678019212912E+00   .692286784216E+00   .705949426321E+00   .718955346229E+00   .731256330534E+00
   .742808466292E+00   .753572993512E+00   .763517114721E+00   .772614653765E+00   .780846523393E+00
   .788201010798E+00   .794673915509E+00   .800268582718E+00   .804995872712E+00   .808874100794E+00
   .811928973799E+00   .814193541765E+00   .815708170622E+00   .816520406978E+00   .816684929359E+00
   .816263705621E+00   .815325973941E+00   .813948124649E+00   .812213451655E+00   .810211755386E+00
   .808038794406E+00   .805795632661E+00   .803587985355E+00   .801525724708E+00   .799722759141E+00
   .798297535983E+00   .797374427950E+00   .797086210867E+00   .797577628549E+00   .799009473157E+00
   .801561504243E+00   .805431186289E+00   .810825182559E+00   .817944206273E+00   .826968670329E+00
   .838055438329E+00   .851348628730E+00   .866997046100E+00
 pseudo wavefunction
   .106848491015E-12   .117614444938E-12   .129465166299E-12   .142509955247E-12   .156869124915E-12
   .172675111073E-12   .190073693594E-12   .209225340998E-12   .230306690459E-12   .253512176948E-12
   .279055826523E-12   .307173230306E-12   .338123717358E-12   .372192746495E-12   .409694539095E-12
   .450974977188E-12   .496414793551E-12   .546433083241E-12   .601491168936E-12   .662096855759E-12
   .728809114795E-12   .802243238536E-12   .883076515765E-12   .972054478245E-12   .106999777682E-11
   .117780975035E-11   .129648475725E-11   .142711734658E-11   .157091235311E-11   .172919600964E-11
   .190342817894E-11   .209521581818E-11   .230632780000E-11   .253871122701E-11   .279450939002E-11
   .307608153582E-11   .338602462667E-11   .372719729230E-11   .410274619526E-11   .451613505286E-11
   .497117658329E-11   .547206767060E-11   .602342807292E-11   .663034303082E-11   .729841016890E-11
   .803379112308E-11   .884326836988E-11   .973430778169E-11   .107151274851E-10   .117947736573E-10
   .129832039597E-10   .142913793780E-10   .157313653166E-10   .173164428782E-10   .190612313569E-10
   .209818230727E-10   .230959317922E-10   .254230561042E-10   .279846592564E-10   .308043671125E-10
   .339081860552E-10   .373247428453E-10   .410855486479E-10   .452252896621E-10   .497821470349E-10
   .547981490075E-10   .603195585456E-10   .663973000254E-10   .730874289126E-10   .804516487658E-10
   .885578803320E-10   .974808879847E-10   .107302969280E-09   .118114713992E-09   .130015839628E-09
   .143116111129E-09   .157536353237E-09   .173409564872E-09   .190882145784E-09   .210115246807E-09
   .231286256165E-09   .254590435526E-09   .280242720916E-09   .308479705080E-09   .339561819588E-09
   .373775736807E-09   .411437013890E-09   .452893003172E-09   .498526055812E-09   .548757048229E-09
   .604049263853E-09   .664912666006E-09   .731908601297E-09   .805654976932E-09   .886831959680E-09
   .976188249055E-09   .107454798257E-08   .118281833676E-08   .130199789406E-08   .143318585270E-08
   .157759216463E-08   .173654869481E-08   .191152150501E-08   .210412437520E-08   .231613368738E-08
   .254950480903E-08   .280639012732E-08   .308915890046E-08   .340041910907E-08   .374304150940E-08
   .412018610996E-08   .453533131587E-08   .499230600972E-08   .549532486476E-08   .604902721615E-08
   .665851984863E-08   .732942409541E-08   .806792768243E-08   .888084179632E-08   .977566390214E-08
   .107606468904E-07   .118448751908E-07   .130383485550E-07   .143520742807E-07   .157981687275E-07
   .173899690611E-07   .191421562558E-07   .210708904900E-07   .231939601827E-07   .255309460461E-07
   .281034016667E-07   .309350522796E-07   .340520135692E-07   .374830325152E-07   .412597525015E-07
   .454170051362E-07   .499931314705E-07   .550303355796E-07   .605750737657E-07   .666784829705E-07
   .733968523485E-07   .807921423467E-07   .889325560791E-07   .978931682598E-07   .107756617496E-06
   .118613868321E-06   .130565049991E-06   .143720379781E-06   .158201179280E-06   .174140993075E-06
   .191686820101E-06   .211000469039E-06   .232260050229E-06   .255661617858E-06   .281420977552E-06
   .309775676026E-06   .340987191126E-06   .375343342442E-06   .413160944688E-06   .454788728306E-06
   .500610554187E-06   .551048952107E-06   .606569015489E-06   .667682688323E-06   .734953483740E-06
   .809001677669E-06   .890510025374E-06   .980230053512E-06   .107898898558E-05   .118769736452E-05
   .130735744252E-05   .143907241530E-05   .158405658574E-05   .174364655024E-05   .191931351079E-05
   .211267682578E-05   .232551892417E-05   .255980171986E-05   .281768467728E-05   .310154469373E-05
   .341399798130E-05   .375792414887E-05   .413649270529E-05   .455319222656E-05   .501186245459E-05
   .551672962136E-05   .607244532215E-05   .668412929359E-05   .735741648792E-05   .809850887386E-05
   .891423243760E-05   .981209990429E-05   .108003797527E-04   .118881721523E-04   .130854925153E-04
   .144033634238E-04   .158539157689E-04   .174505000216E-04   .192078086450E-04   .211420107597E-04
   .232709002812E-04   .256140588720E-04   .281930351799E-04   .310315419821E-04   .341556730111E-04
   .375941414153E-04   .413785419967E-04   .455436395777E-04   .501276860803E-04   .551727691500E-04
   .607251954337E-04   .668359119208E-04   .735609690877E-04   .809620299434E-04   .891069294717E-04
   .980702893896E-04   .107934193618E-03   .118788930364E-03   .130733807282E-03   .143878046784E-03
   .158341769220E-03   .174257072402E-03   .191769216689E-03   .211037925718E-03   .232238813799E-03
   .255564951963E-03   .281228585751E-03   .309463018988E-03   .340524679051E-03   .374695380480E-03
   .412284805249E-03   .453633219559E-03   .499114448692E-03   .549139133238E-03   .604158291896E-03
   .664667218054E-03   .731209739467E-03   .804382872578E-03   .884841905331E-03   .973305944773E-03
   .107056396818E-02   .117748141902E-02   .129500739165E-02   .142418245116E-02   .156614713729E-02
   .172215120392E-02   .189356364757E-02   .208188358066E-02   .228875200666E-02   .251596455557E-02
   .276548523858E-02   .303946128053E-02   .334023908738E-02   .367038140340E-02   .403268570856E-02
   .443020390026E-02   .486626329545E-02   .534448897725E-02   .586882749595E-02   .644357191479E-02
   .707338816760E-02   .776334266528E-02   .851893105221E-02   .934610796875E-02   .102513176227E-01
   .112415249076E-01   .123242467289E-01   .135075831068E-01   .148002475171E-01   .162115958031E-01
   .177516528432E-01   .194311359844E-01   .212614740536E-01   .232548205230E-01   .254240591439E-01
   .277828000592E-01   .303453640595E-01   .331267522648E-01   .361425980759E-01   .394090977600E-01
   .429429155052E-01   .467610581965E-01   .508807145414E-01   .553190525069E-01   .600929683282E-01
   .652187796325E-01   .707118544993E-01   .765861675819E-01   .828537737780E-01   .895241893958E-01
   .966036703839E-01   .104094377033E+00   .111993414711E+00   .120291740764E+00   .128972928790E+00
   .138011783290E+00   .147372800261E+00   .157008472933E+00   .166857446603E+00   .176842532743E+00
   .186868600275E+00   .196820371436E+00   .206560160972E+00   .215925610685E+00   .224727486426E+00
   .232747621249E+00   .239737106235E+00   .245414848494E+00   .249466633080E+00   .251544840165E+00
   .251268978795E+00   .248227200896E+00   .241978950616E+00   .232058880379E+00   .217982121849E+00
   .199250932668E+00   .175362644263E+00   .145818709275E+00   .110134489019E+00   .678492354746E-01
   .185355190416E-01  -.381928484492E-01  -.102675514892E+00  -.175204122875E+00  -.256025836007E+00
  -.345352737543E+00  -.443377381863E+00  -.550293744686E+00  -.666321240447E+00  -.791727270539E+00
  -.926840909138E+00  -.107204690715E+01  -.122777196239E+01
 ae wavefunction
   .427805641550E-10   .468764030060E-10   .513187098351E-10   .561404763727E-10   .613775594938E-10
   .670689553459E-10   .732570977802E-10   .799881838515E-10   .873125288703E-10   .952849536180E-10
   .103965207434E-09   .113418429778E-09   .123715654847E-09   .134934362435E-09   .147159080478E-09
   .160482043234E-09   .175003911480E-09   .190834559081E-09   .208093933940E-09   .226913000861E-09
   .247434770485E-09   .269815427209E-09   .294225562773E-09   .320851526834E-09   .349896904188E-09
   .381584133779E-09   .416156279144E-09   .453878968384E-09   .495042518430E-09   .539964260819E-09
   .588991089794E-09   .642502253344E-09   .700912410403E-09   .764674980904E-09   .834285816148E-09
   .910287220897E-09   .993272361285E-09   .108389009591E-08   .118285027117E-08   .129092952606E-08
   .140897765588E-08   .153792458933E-08   .167878803863E-08   .183268188840E-08   .200082539519E-08
   .218455327696E-08   .238532677923E-08   .260474581349E-08   .284456227265E-08   .310669463871E-08
   .339324400908E-08   .370651168022E-08   .404901844299E-08   .442352575374E-08   .483305896836E-08
   .528093284189E-08   .577077951539E-08   .630657922880E-08   .689269404140E-08   .753390483902E-08
   .823545196173E-08   .900307980809E-08   .984308579837E-08   .107623741382E-07   .117685148417E-07
   .128698085458E-07   .140753576726E-07   .153951445744E-07   .168401173441E-07   .184222840544E-07
   .201548162384E-07   .220521625432E-07   .241301735484E-07   .264062388443E-07   .288994375938E-07
   .316307038930E-07   .346230083936E-07   .379015577902E-07   .414940139386E-07   .454307345245E-07
   .497450374264E-07   .544734910882E-07   .596562334810E-07   .653373224512E-07   .715651205688E-07
   .783927178534E-07   .858783961155E-07   .940861390134E-07   .103086192315E-06   .112955679298E-06
   .123779276763E-06   .135649957501E-06   .148669805903E-06   .162950913767E-06   .178616364233E-06
   .195801312524E-06   .214654172915E-06   .235337922418E-06   .258031532611E-06   .282931542133E-06
   .310253783635E-06   .340235280346E-06   .373136328764E-06   .409242785727E-06   .448868579804E-06
   .492358468913E-06   .540091068137E-06   .592482174169E-06   .649988415117E-06   .713111257550E-06
   .782401405248E-06   .858463627953E-06   .941962061658E-06   .103362602624E-05   .113425641056E-05
   .124473267977E-05   .136602056521E-05   .149918050250E-05   .164537689013E-05   .180588824750E-05
   .198211835886E-05   .217560849787E-05   .238805083639E-05   .262130315084E-05   .287740495023E-05
   .315859516154E-05   .346733152094E-05   .380631183290E-05   .417849727501E-05   .458713794183E-05
   .503580084017E-05   .552840056709E-05   .606923292322E-05   .666301173769E-05   .731490920588E-05
   .803060006898E-05   .881630999382E-05   .967886854461E-05   .106257671732E-04   .116652226928E-04
   .128062467421E-04   .140587217917E-04   .154334842944E-04   .169424156328E-04   .185985415771E-04
   .204161410276E-04   .224108648820E-04   .245998659456E-04   .270019408757E-04   .296376852401E-04
   .325296628625E-04   .357025907222E-04   .391835407891E-04   .430021602835E-04   .471909119795E-04
   .517853362993E-04   .568243370929E-04   .623504931483E-04   .684103976416E-04   .750550279144E-04
   .823401481513E-04   .903267477328E-04   .990815182529E-04   .108677372417E-03   .119194008282E-03
   .130718522549E-03   .143346076910E-03   .157180621709E-03   .172335681523E-03   .188935207536E-03
   .207114501987E-03   .227021220246E-03   .248816456519E-03   .272675919510E-03   .298791204809E-03
   .327371171173E-03   .358643428302E-03   .392855944152E-03   .430278780282E-03   .471205964208E-03
   .515957508156E-03   .564881584152E-03   .618356865768E-03   .676795047385E-03   .740643552218E-03
   .810388440836E-03   .886557532282E-03   .969723750306E-03   .106050870754E-02   .115958654075E-02
   .126768801053E-02   .138560487897E-02   .151419457881E-02   .165438518781E-02   .180718072153E-02
   .197366675786E-02   .215501640587E-02   .235249663116E-02   .256747494897E-02   .280142649533E-02
   .305594148535E-02   .333273306602E-02   .363364556931E-02   .396066316905E-02   .431591894260E-02
   .470170433553E-02   .512047902402E-02   .557488116629E-02   .606773802977E-02   .660207697636E-02
   .718113678259E-02   .780837926602E-02   .848750118263E-02   .922244635330E-02   .100174179702E-01
   .108768910260E-01   .118056248008E-01   .128086753339E-01   .138914077996E-01   .150595086974E-01
   .163189977619E-01   .176762394892E-01   .191379541709E-01   .207112283195E-01   .224035243557E-01
   .242226894082E-01   .261769630431E-01   .282749836801E-01   .305257933676E-01   .329388404781E-01
   .355239797548E-01   .382914690290E-01   .412519618780E-01   .444164955450E-01   .477964736280E-01
   .514036433590E-01   .552500676703E-01   .593480926115E-01   .637103109048E-01   .683495223974E-01
   .732786917982E-01   .785109034641E-01   .840593123538E-01   .899370899372E-01   .961573638866E-01
   .102733150818E+00   .109677281735E+00   .117002320171E+00   .124720473044E+00   .132843494241E+00
   .141382580760E+00   .150348261200E+00   .159750276387E+00   .169597451945E+00   .179897562840E+00
   .190657190043E+00   .201881569766E+00   .213574435924E+00   .225737856911E+00   .238372067967E+00
   .251475300937E+00   .265043613498E+00   .279070720333E+00   .293547828976E+00   .308463483192E+00
   .323803416621E+00   .339550419032E+00   .355684216606E+00   .372181366499E+00   .389015164371E+00
   .406155562150E+00   .423569092958E+00   .441218801995E+00   .459064188366E+00   .477061175632E+00
   .495162150253E+00   .513316136745E+00   .531469209417E+00   .549565247143E+00   .567547058073E+00
   .585357631745E+00   .602940759887E+00   .620239740817E+00   .637193111790E+00   .653728148247E+00
   .669755628983E+00   .685170185825E+00   .699856719692E+00   .713698094436E+00   .726579397114E+00
   .738388466027E+00   .749014861048E+00   .758348915753E+00   .766281400893E+00   .772703756037E+00
   .777508669414E+00   .780590764186E+00   .781847196669E+00   .781178049288E+00   .778486476395E+00
   .773678614568E+00   .766663294732E+00   .757351600341E+00   .745656310801E+00   .731491259847E+00
   .714770627250E+00   .695408171693E+00   .673316398083E+00   .648405539957E+00   .620582511048E+00
   .589749898289E+00   .555804663315E+00   .518636623625E+00   .478126696693E+00   .434144919873E+00
   .386548279113E+00   .335178419263E+00   .279859331074E+00   .220395104155E+00   .156567788428E+00
   .881353086528E-01   .148292267369E-01  -.636480465184E-01  -.147627167477E+00  -.237477462695E+00
  -.333614145123E+00  -.436505335674E+00  -.546674670301E+00  -.664694969827E+00  -.791173876756E+00
  -.926740856811E+00  -.107204603447E+01  -.122777196239E+01
 End of Dataset
 PAW_PBE Fe_pv 06Sep2000
 14.0000000000000000
 parameters from PSCTR are:
   VRHFIN =Fe:  3pd7s1
   LEXCH  = PE
   EATOM  =  2456.8974 eV,  180.5769 Ry

   TITEL  = PAW_PBE Fe_pv 06Sep2000
   LULTRA =        F    use ultrasoft PP ?
   IUNSCR =        1    unscreen: 0-lin 1-nonlin 2-no
   RPACOR =    1.750    partial core radius
   POMASS =   55.847; ZVAL   =   14.000    mass and valenz
   RCORE  =    2.200    outmost cutoff radius
   RWIGS  =    2.200; RWIGS  =    1.164    wigner-seitz radius (au A)
   ENMAX  =  293.238; ENMIN  =  219.929 eV
   RCLOC  =    1.701    cutoff for local pot
   LCOR   =        T    correct aug charges
   LPAW   =        T    paw PP
   EAUG   =  578.342
   DEXC   =    -.002
   RMAX   =    2.693    core radius for proj-oper
   RAUG   =    1.300    factor for augmentation sphere
   RDEP   =    2.296    radius for radial grids
   QCUT   =   -4.642; QGAM   =    9.285    optimization parameters
 
   Description
     l     E      TYP  RCUT    TYP  RCUT
     1   .000     23  2.000
     1  -.400     23  2.000
     2   .000     23  2.200
     2   .000     23  2.200
     0   .000     23  2.000
     0  2.000     23  2.000
     3   .000      7   .000
   Error from kinetic energy argument (eV)
   NDATA  =      100
   STEP   =   20.000   1.050
  199.      197.      196.      193.      192.      189.      187.      185.
  182.      179.      177.      173.      170.      166.      162.      157.
  153.      148.      144.      137.      132.      127.      120.      115.
  110.      103.      95.3      90.5      83.4      76.6      70.0      63.6
  57.6      51.8      46.4      41.3      35.1      30.8      25.7      22.3
  18.2      14.7      11.7      9.21      7.12      5.42      4.06      2.74
  1.96      1.25      .765      .504      .292      .170      .975E-01  .731E-01
  .649E-01  .632E-01  .619E-01  .576E-01  .500E-01  .404E-01  .306E-01  .205E-01
  .141E-01  .927E-02  .689E-02  .608E-02  .597E-02  .588E-02  .539E-02  .448E-02
  .339E-02  .239E-02  .161E-02  .125E-02  .113E-02  .112E-02  .107E-02  .928E-03
  .710E-03  .503E-03  .369E-03  .311E-03  .302E-03  .288E-03  .247E-03  .185E-03
  .134E-03  .110E-03  .103E-03  .974E-04  .809E-04  .618E-04  .477E-04  .423E-04
  .392E-04  .339E-04  .262E-04  .213E-04
END of PSCTR-controll parameters
 local part
 85.0376694860515556
   .14031159E+03   .14028744E+03   .14021498E+03   .14009432E+03   .13992560E+03
   .13970903E+03   .13944487E+03   .13913343E+03   .13877509E+03   .13837027E+03
   .13791944E+03   .13742312E+03   .13688187E+03   .13629632E+03   .13566713E+03
   .13499499E+03   .13428067E+03   .13352493E+03   .13272863E+03   .13189264E+03
   .13101786E+03   .13010526E+03   .12915583E+03   .12817059E+03   .12715061E+03
   .12609699E+03   .12501084E+03   .12389332E+03   .12274562E+03   .12156893E+03
   .12036448E+03   .11913351E+03   .11787728E+03   .11659707E+03   .11529416E+03
   .11396985E+03   .11262544E+03   .11126224E+03   .10988159E+03   .10848478E+03
   .10707316E+03   .10564803E+03   .10421072E+03   .10276255E+03   .10130481E+03
   .99838814E+02   .98365840E+02   .96887168E+02   .95404057E+02   .93917752E+02
   .92429478E+02   .90940443E+02   .89451833E+02   .87964810E+02   .86480513E+02
   .85000059E+02   .83524533E+02   .82054998E+02   .80592485E+02   .79137996E+02
   .77692504E+02   .76256950E+02   .74832239E+02   .73419248E+02   .72018816E+02
   .70631748E+02   .69258814E+02   .67900747E+02   .66558245E+02   .65231969E+02
   .63922542E+02   .62630550E+02   .61356543E+02   .60101033E+02   .58864496E+02
   .57647368E+02   .56450051E+02   .55272909E+02   .54116269E+02   .52980423E+02
   .51865627E+02   .50772099E+02   .49700025E+02   .48649555E+02   .47620805E+02
   .46613860E+02   .45628769E+02   .44665551E+02   .43724196E+02   .42804661E+02
   .41906875E+02   .41030739E+02   .40176128E+02   .39342888E+02   .38530842E+02
   .37739789E+02   .36969502E+02   .36219736E+02   .35490221E+02   .34780670E+02
   .34090776E+02   .33420213E+02   .32768642E+02   .32135704E+02   .31521031E+02
   .30924238E+02   .30344930E+02   .29782702E+02   .29237139E+02   .28707817E+02
   .28194306E+02   .27696170E+02   .27212968E+02   .26744255E+02   .26289582E+02
   .25848502E+02   .25420563E+02   .25005316E+02   .24602314E+02   .24211110E+02
   .23831262E+02   .23462330E+02   .23103883E+02   .22755492E+02   .22416737E+02
   .22087204E+02   .21766488E+02   .21454193E+02   .21149932E+02   .20853328E+02
   .20564014E+02   .20281634E+02   .20005845E+02   .19736314E+02   .19472721E+02
   .19214758E+02   .18962130E+02   .18714555E+02   .18471765E+02   .18233504E+02
   .17999530E+02   .17769615E+02   .17543542E+02   .17321112E+02   .17102134E+02
   .16886433E+02   .16673849E+02   .16464229E+02   .16257439E+02   .16053352E+02
   .15851856E+02   .15652850E+02   .15456243E+02   .15261956E+02   .15069920E+02
   .14880076E+02   .14692375E+02   .14506777E+02   .14323249E+02   .14141767E+02
   .13962316E+02   .13784886E+02   .13609473E+02   .13436081E+02   .13264718E+02
   .13095395E+02   .12928131E+02   .12762944E+02   .12599859E+02   .12438901E+02
   .12280098E+02   .12123480E+02   .11969076E+02   .11816917E+02   .11667035E+02
   .11519460E+02   .11374220E+02   .11231345E+02   .11090861E+02   .10952793E+02
   .10817163E+02   .10683991E+02   .10553292E+02   .10425082E+02   .10299369E+02
   .10176161E+02   .10055459E+02   .99372639E+01   .98215693E+01   .97083665E+01
   .95976421E+01   .94893787E+01   .93835550E+01   .92801453E+01   .91791201E+01
   .90804458E+01   .89840851E+01   .88899968E+01   .87981362E+01   .87084553E+01
   .86209027E+01   .85354241E+01   .84519624E+01   .83704579E+01   .82908487E+01
   .82130708E+01   .81370586E+01   .80627447E+01   .79900609E+01   .79189379E+01
   .78493056E+01   .77810937E+01   .77142318E+01   .76486498E+01   .75842779E+01
   .75210470E+01   .74588891E+01   .73977375E+01   .73375269E+01   .72781937E+01
   .72196765E+01   .71619158E+01   .71048545E+01   .70484383E+01   .69926152E+01
   .69373365E+01   .68825562E+01   .68282312E+01   .67743220E+01   .67207920E+01
   .66676080E+01   .66147400E+01   .65621615E+01   .65098490E+01   .64577828E+01
   .64059459E+01   .63543251E+01   .63029099E+01   .62516932E+01   .62006706E+01
   .61498407E+01   .60992051E+01   .60487675E+01   .59985344E+01   .59485145E+01
   .58987185E+01   .58491593E+01   .57998513E+01   .57508105E+01   .57020544E+01
   .56536014E+01   .56054712E+01   .55576842E+01   .55102612E+01   .54632237E+01
   .54165931E+01   .53703911E+01   .53246391E+01   .52793583E+01   .52345691E+01
   .51902916E+01   .51465448E+01   .51033469E+01   .50607147E+01   .50186641E+01
   .49772094E+01   .49363636E+01   .48961381E+01   .48565426E+01   .48175852E+01
   .47792724E+01   .47416086E+01   .47045968E+01   .46682379E+01   .46325312E+01
   .45974740E+01   .45630619E+01   .45292890E+01   .44961472E+01   .44636272E+01
   .44317178E+01   .44004064E+01   .43696791E+01   .43395203E+01   .43099135E+01
   .42808409E+01   .42522837E+01   .42242221E+01   .41966358E+01   .41695035E+01
   .41428036E+01   .41165139E+01   .40906120E+01   .40650754E+01   .40398813E+01
   .40150074E+01   .39904311E+01   .39661304E+01   .39420838E+01   .39182701E+01
   .38946688E+01   .38712603E+01   .38480256E+01   .38249469E+01   .38020070E+01
   .37791903E+01   .37564819E+01   .37338682E+01   .37113370E+01   .36888772E+01
   .36664791E+01   .36441342E+01   .36218354E+01   .35995770E+01   .35773544E+01
   .35551645E+01   .35330055E+01   .35108766E+01   .34887786E+01   .34667133E+01
   .34446836E+01   .34226934E+01   .34007480E+01   .33788531E+01   .33570159E+01
   .33352438E+01   .33135454E+01   .32919295E+01   .32704059E+01   .32489846E+01
   .32276759E+01   .32064904E+01   .31854392E+01   .31645331E+01   .31437832E+01
   .31232003E+01   .31027952E+01   .30825785E+01   .30625603E+01   .30427507E+01
   .30231588E+01   .30037937E+01   .29846635E+01   .29657759E+01   .29471379E+01
   .29287556E+01   .29106344E+01   .28927789E+01   .28751927E+01   .28578787E+01
   .28408388E+01   .28240740E+01   .28075845E+01   .27913696E+01   .27754275E+01
   .27597556E+01   .27443507E+01   .27292085E+01   .27143239E+01   .26996911E+01
   .26853036E+01   .26711541E+01   .26572346E+01   .26435368E+01   .26300515E+01
   .26167691E+01   .26036798E+01   .25907732E+01   .25780386E+01   .25654652E+01
   .25530420E+01   .25407578E+01   .25286014E+01   .25165617E+01   .25046276E+01
   .24927883E+01   .24810329E+01   .24693511E+01   .24577327E+01   .24461680E+01
   .24346476E+01   .24231626E+01   .24117048E+01   .24002662E+01   .23888398E+01
   .23774188E+01   .23659975E+01   .23545705E+01   .23431334E+01   .23316822E+01
   .23202139E+01   .23087260E+01   .22972170E+01   .22856858E+01   .22741322E+01
   .22625567E+01   .22509605E+01   .22393452E+01   .22277134E+01   .22160680E+01
   .22044127E+01   .21927517E+01   .21810896E+01   .21694316E+01   .21577833E+01
   .21461506E+01   .21345398E+01   .21229576E+01   .21114107E+01   .20999062E+01
   .20884513E+01   .20770532E+01   .20657191E+01   .20544564E+01   .20432723E+01
   .20321739E+01   .20211681E+01   .20102616E+01   .19994611E+01   .19887726E+01
   .19782022E+01   .19677553E+01   .19574372E+01   .19472525E+01   .19372057E+01
   .19273003E+01   .19175399E+01   .19079271E+01   .18984641E+01   .18891528E+01
   .18799941E+01   .18709887E+01   .18621365E+01   .18534371E+01   .18448892E+01
   .18364913E+01   .18282411E+01   .18201360E+01   .18121727E+01   .18043475E+01
   .17966564E+01   .17890948E+01   .17816576E+01   .17743396E+01   .17671350E+01
   .17600380E+01   .17530421E+01   .17461410E+01   .17393278E+01   .17325959E+01
   .17259382E+01   .17193477E+01   .17128173E+01   .17063400E+01   .16999088E+01
   .16935168E+01   .16871572E+01   .16808233E+01   .16745087E+01   .16682073E+01
   .16619130E+01   .16556203E+01   .16493237E+01   .16430183E+01   .16366995E+01
   .16303630E+01   .16240050E+01   .16176222E+01   .16112116E+01   .16047708E+01
   .15982977E+01   .15917908E+01   .15852491E+01   .15786721E+01   .15720595E+01
   .15654118E+01   .15587297E+01   .15520146E+01   .15452682E+01   .15384925E+01
   .15316900E+01   .15248637E+01   .15180168E+01   .15111529E+01   .15042758E+01
   .14973898E+01   .14904993E+01   .14836088E+01   .14767233E+01   .14698477E+01
   .14629873E+01   .14561471E+01   .14493324E+01   .14425485E+01   .14358008E+01
   .14290944E+01   .14224344E+01   .14158259E+01   .14092738E+01   .14027828E+01
   .13963575E+01   .13900021E+01   .13837207E+01   .13775171E+01   .13713948E+01
   .13653568E+01   .13594062E+01   .13535453E+01   .13477763E+01   .13421009E+01
   .13365204E+01   .13310358E+01   .13256477E+01   .13203562E+01   .13151610E+01
   .13100615E+01   .13050567E+01   .13001452E+01   .12953251E+01   .12905944E+01
   .12859505E+01   .12813907E+01   .12769117E+01   .12725102E+01   .12681826E+01
   .12639247E+01   .12597326E+01   .12556018E+01   .12515278E+01   .12475059E+01
   .12435313E+01   .12395991E+01   .12357043E+01   .12318421E+01   .12280073E+01
   .12241952E+01   .12204007E+01   .12166192E+01   .12128459E+01   .12090763E+01
   .12053060E+01   .12015308E+01   .11977468E+01   .11939502E+01   .11901375E+01
   .11863056E+01   .11824514E+01   .11785724E+01   .11746662E+01   .11707309E+01
   .11667647E+01   .11627665E+01   .11587352E+01   .11546702E+01   .11505714E+01
   .11464387E+01   .11422727E+01   .11380740E+01   .11338439E+01   .11295837E+01
   .11252952E+01   .11209803E+01   .11166414E+01   .11122810E+01   .11079018E+01
   .11035070E+01   .10990997E+01   .10946834E+01   .10902615E+01   .10858378E+01
   .10814160E+01   .10770001E+01   .10725940E+01   .10682016E+01   .10638269E+01
   .10594739E+01   .10551465E+01   .10508484E+01   .10465835E+01   .10423554E+01
   .10381674E+01   .10340230E+01   .10299253E+01   .10258772E+01   .10218815E+01
   .10179405E+01   .10140567E+01   .10102319E+01   .10064680E+01   .10027662E+01
   .99912787E+00   .99555373E+00   .99204436E+00   .98860003E+00   .98522067E+00
   .98190593E+00   .97865518E+00   .97546747E+00   .97234160E+00   .96927608E+00
   .96626916E+00   .96331887E+00   .96042296E+00   .95757901E+00   .95478436E+00
   .95203618E+00   .94933147E+00   .94666708E+00   .94403974E+00   .94144604E+00
   .93888252E+00   .93634564E+00   .93383180E+00   .93133740E+00   .92885885E+00
   .92639256E+00   .92393501E+00   .92148274E+00   .91903237E+00   .91658065E+00
   .91412445E+00   .91166076E+00   .90918677E+00   .90669982E+00   .90419745E+00
   .90167740E+00   .89913764E+00   .89657634E+00   .89399192E+00   .89138304E+00
   .88874862E+00   .88608782E+00   .88340007E+00   .88068505E+00   .87794270E+00
   .87517321E+00   .87237705E+00   .86955489E+00   .86670768E+00   .86383657E+00
   .86094293E+00   .85802837E+00   .85509465E+00   .85214374E+00   .84917777E+00
   .84619902E+00   .84320990E+00   .84021295E+00   .83721082E+00   .83420623E+00
   .83120198E+00   .82820090E+00   .82520588E+00   .82221980E+00   .81924553E+00
   .81628591E+00   .81334376E+00   .81042179E+00   .80752267E+00   .80464895E+00
   .80180306E+00   .79898732E+00   .79620390E+00   .79345481E+00   .79074190E+00
   .78806685E+00   .78543114E+00   .78283607E+00   .78028274E+00   .77777205E+00
   .77530466E+00   .77288106E+00   .77050149E+00   .76816600E+00   .76587440E+00
   .76362630E+00   .76142111E+00   .75925802E+00   .75713605E+00   .75505401E+00
   .75301054E+00   .75100412E+00   .74903306E+00   .74709553E+00   .74518959E+00
   .74331315E+00   .74146403E+00   .73963996E+00   .73783859E+00   .73605751E+00
   .73429426E+00   .73254634E+00   .73081125E+00   .72908649E+00   .72736956E+00
   .72565799E+00   .72394939E+00   .72224138E+00   .72053171E+00   .71881819E+00
   .71709872E+00   .71537135E+00   .71363422E+00   .71188562E+00   .71012399E+00
   .70834792E+00   .70655612E+00   .70474752E+00   .70292118E+00   .70107634E+00
   .69921243E+00   .69732903E+00   .69542593E+00   .69350307E+00   .69156058E+00
   .68959877E+00   .68761812E+00   .68561927E+00   .68360301E+00   .68157030E+00
   .67952223E+00   .67746004E+00   .67538509E+00   .67329885E+00   .67120288E+00
   .66909887E+00   .66698855E+00   .66487376E+00   .66275637E+00   .66063829E+00
   .65852150E+00   .65640796E+00   .65429967E+00   .65219860E+00   .65010671E+00
   .64802595E+00   .64595820E+00   .64390531E+00   .64186903E+00   .63985105E+00
   .63785300E+00   .63587636E+00   .63392255E+00   .63199284E+00   .63008840E+00
   .62821028E+00   .62635939E+00   .62453649E+00   .62274222E+00   .62097707E+00
   .61924139E+00   .61753539E+00   .61585912E+00   .61421249E+00   .61259527E+00
   .61100709E+00   .60944743E+00   .60791564E+00   .60641095E+00   .60493245E+00
   .60347913E+00   .60204986E+00   .60064342E+00   .59925849E+00   .59789367E+00
   .59654748E+00   .59521839E+00   .59390481E+00   .59260510E+00   .59131760E+00
   .59004062E+00   .58877245E+00   .58751139E+00   .58625572E+00   .58500378E+00
   .58375390E+00   .58250447E+00   .58125392E+00   .58000073E+00   .57874346E+00
   .57748074E+00   .57621129E+00   .57493390E+00   .57364748E+00   .57235102E+00
   .57104365E+00   .56972457E+00   .56839313E+00   .56704877E+00   .56569105E+00
   .56431968E+00   .56293446E+00   .56153532E+00   .56012231E+00   .55869560E+00
   .55725549E+00   .55580237E+00   .55433677E+00   .55285930E+00   .55137069E+00
   .54987176E+00   .54836342E+00   .54684666E+00   .54532257E+00   .54379226E+00
   .54225695E+00   .54071788E+00   .53917634E+00   .53763366E+00   .53609119E+00
   .53455030E+00   .53301238E+00   .53147881E+00   .52995095E+00   .52843017E+00
   .52691781E+00   .52541516E+00   .52392348E+00   .52244400E+00   .52097785E+00
   .51952614E+00   .51808988E+00   .51667002E+00   .51526741E+00   .51388284E+00
   .51251698E+00   .51117042E+00   .50984366E+00   .50853708E+00   .50725098E+00
   .50598555E+00   .50474087E+00   .50351694E+00   .50231363E+00   .50113072E+00
   .49996791E+00   .49882479E+00   .49770084E+00   .49659546E+00   .49550799E+00
   .49443764E+00   .49338359E+00   .49234493E+00   .49132067E+00   .49030979E+00
   .48931122E+00   .48832382E+00   .48734645E+00   .48637792E+00   .48541703E+00
   .48446256E+00   .48351328E+00   .48256798E+00   .48162544E+00   .48068447E+00
   .47974389E+00   .47880256E+00   .47785937E+00   .47691326E+00   .47596322E+00
   .47500828E+00   .47404757E+00   .47308025E+00   .47210556E+00   .47112284E+00
   .47013149E+00   .46913099E+00   .46812091E+00   .46710093E+00   .46607077E+00
   .46503029E+00   .46397940E+00   .46291812E+00   .46184656E+00   .46076489E+00
   .45967339E+00   .45857241E+00   .45746240E+00   .45634387E+00   .45521741E+00
   .45408366E+00   .45294336E+00   .45179729E+00   .45064627E+00   .44949120E+00
   .44833300E+00   .44717263E+00   .44601107E+00   .44484933E+00   .44368845E+00
   .44252944E+00   .44137335E+00   .44022120E+00   .43907402E+00   .43793280E+00
   .43679852E+00   .43567213E+00   .43455455E+00   .43344666E+00   .43234927E+00
   .43126317E+00   .43018907E+00   .42912764E+00   .42807946E+00   .42704506E+00
   .42602488E+00   .42501931E+00   .42402864E+00   .42305310E+00   .42209282E+00
   .42114788E+00   .42021827E+00   .41930388E+00   .41840455E+00   .41752005E+00
   .41665006E+00   .41579419E+00   .41495198E+00   .41412292E+00   .41330642E+00
   .41250185E+00   .41170850E+00   .41092563E+00   .41015246E+00   .40938816E+00
   .40863186E+00   .40788268E+00   .40713972E+00   .40640204E+00   .40566872E+00
   .40493882E+00   .40421141E+00   .40348557E+00   .40276039E+00   .40203497E+00
   .40130847E+00   .40058004E+00   .39984888E+00   .39911423E+00   .39837539E+00
   .39763167E+00   .39688247E+00   .39612723E+00   .39536546E+00   .39459672E+00
   .39382064E+00   .39303693E+00   .39224535E+00   .39144574E+00   .39063801E+00
   .38982214E+00   .38899819E+00   .38816625E+00   .38732653E+00   .38647926E+00
   .38562476E+00   .38476339E+00   .38389559E+00   .38302184E+00   .38214268E+00
   .38125868E+00   .38037048E+00   .37947875E+00   .37858418E+00   .37768750E+00
   .37678948E+00   .37589089E+00   .37499252E+00   .37409517E+00   .37319964E+00
   .37230673E+00   .37141723E+00   .37053192E+00   .36965156E+00   .36877689E+00
   .36790861E+00   .36704741E+00   .36619394E+00   .36534880E+00   .36451255E+00
   .36368572E+00   .36286877E+00   .36206212E+00   .36126613E+00   .36048111E+00
   .35970730E+00   .35894489E+00   .35819399E+00   .35745468E+00   .35672695E+00
   .35601073E+00   .35530591E+00   .35461231E+00   .35392969E+00   .35325776E+00
   .35259616E+00   .35194452E+00   .35130238E+00   .35066926E+00   .35004462E+00
 gradient corrections used for XC
 5
 core charge-density (partial)
   .71600890E+00   .71575195E+00   .71498162E+00   .71369952E+00   .71190828E+00
   .70961159E+00   .70681419E+00   .70352181E+00   .69974119E+00   .69548005E+00
   .69074704E+00   .68555174E+00   .67990461E+00   .67381698E+00   .66730095E+00
   .66036944E+00   .65303607E+00   .64531515E+00   .63722163E+00   .62877107E+00
   .61997955E+00   .61086363E+00   .60144034E+00   .59172709E+00   .58174161E+00
   .57150192E+00   .56102627E+00   .55033309E+00   .53944094E+00   .52836842E+00
   .51713420E+00   .50575688E+00   .49425501E+00   .48264700E+00   .47095109E+00
   .45918531E+00   .44736744E+00   .43551494E+00   .42364496E+00   .41177426E+00
   .39991919E+00   .38809566E+00   .37631912E+00   .36460451E+00   .35296627E+00
   .34141826E+00   .32997380E+00   .31864562E+00   .30744584E+00   .29638599E+00
   .28547694E+00   .27472897E+00   .26415169E+00   .25375408E+00   .24354449E+00
   .23353058E+00   .22371943E+00   .21411743E+00   .20473036E+00   .19556337E+00
   .18662101E+00   .17790719E+00   .16942527E+00   .16117799E+00   .15316755E+00
   .14539560E+00   .13786324E+00   .13057108E+00   .12351922E+00   .11670727E+00
   .11013442E+00   .10379938E+00   .97700483E-01   .91835646E-01   .86202420E-01
   .80798003E-01   .75619266E-01   .70662774E-01   .65924802E-01   .61401368E-01
   .57088241E-01   .52980974E-01   .49074917E-01   .45365243E-01   .41846963E-01
   .38514949E-01   .35363955E-01   .32388628E-01   .29583536E-01   .26943177E-01
   .24462002E-01   .22134426E-01   .19954849E-01   .17917664E-01   .16017277E-01
   .14248118E-01   .12604654E-01   .11081400E-01   .96729297E-02   .83738895E-02
   .71790041E-02   .60830875E-02   .50810509E-02   .41679104E-02   .33387935E-02
   .25889459E-02   .19137364E-02   .13086623E-02   .76935350E-03   .29157596E-03
  -.12876487E-03  -.49562176E-03  -.81280368E-03  -.10839744E-02  -.13126514E-02
  -.15022057E-02  -.16558615E-02  -.17766968E-02  -.18676442E-02  -.19314922E-02
  -.19708864E-02  -.19883317E-02  -.19861946E-02  -.19667052E-02  -.19319605E-02
  -.18839269E-02  -.18244439E-02  -.17552267E-02  -.16778707E-02  -.15938546E-02
  -.15045443E-02  -.14111971E-02  -.13149654E-02  -.12169010E-02  -.11179595E-02
  -.10190040E-02  -.92080970E-03  -.82406807E-03  -.72939103E-03  -.63731519E-03
  -.54830603E-03  -.46276206E-03  -.38101890E-03  -.30335326E-03  -.22998693E-03
  -.16109063E-03  -.96787770E-04  -.37158102E-04   .17758681E-04   .67959515E-04
   .11347462E-03   .15436429E-03   .19071581E-03   .22264045E-03   .25027070E-03
   .27375751E-03   .29326775E-03   .30898175E-03   .32109102E-03   .32979610E-03
   .33530447E-03   .33782868E-03   .33758460E-03   .33478973E-03   .32966171E-03
   .32241692E-03   .31326919E-03   .30242868E-03   .29010079E-03   .27648527E-03
   .26177536E-03   .24615710E-03   .22980866E-03   .21289986E-03   .19559167E-03
   .17803591E-03   .16037494E-03   .14274148E-03   .12525844E-03   .10803891E-03
   .91186141E-04   .74793579E-04   .58945012E-04   .43714711E-04   .29167638E-04
   .15359692E-04   .23379917E-05  -.98588160E-05  -.21200210E-04  -.31663433E-04
  -.41233102E-04  -.49900807E-04  -.57664694E-04  -.64529036E-04  -.70503799E-04
  -.75604201E-04  -.79850271E-04  -.83266407E-04  -.85880939E-04  -.87725696E-04
  -.88835581E-04  -.89248153E-04  -.89003222E-04  -.88142458E-04  -.86709011E-04
  -.84747147E-04  -.82301900E-04  -.79418740E-04  -.76143266E-04  -.72520905E-04
  -.68596640E-04  -.64414757E-04  -.60018603E-04  -.55450376E-04  -.50750925E-04
  -.45959576E-04  -.41113972E-04  -.36249939E-04  -.31401366E-04  -.26600103E-04
  -.21875883E-04  -.17256254E-04  -.12766533E-04  -.84297743E-05  -.42667509E-05
  -.29595558E-06   .34663882E-05   .70063016E-05   .10312013E-04   .13373911E-04
   .16184483E-04   .18738252E-04   .21031696E-04   .23063165E-04   .24832794E-04
   .26342402E-04   .27595392E-04   .28596649E-04   .29352425E-04   .29870234E-04
   .30158735E-04   .30227622E-04   .30087505E-04   .29749801E-04   .29226619E-04
   .28530649E-04   .27675054E-04   .26673366E-04   .25539377E-04   .24287048E-04
   .22930405E-04   .21483458E-04   .19960105E-04   .18374058E-04   .16738762E-04
   .15067329E-04   .13372469E-04   .11666431E-04   .99609515E-05   .82672027E-05
   .65957528E-05   .49565277E-05   .33587805E-05   .18110654E-05   .32121769E-06
  -.11036610E-05  -.24572128E-05  -.37338285E-05  -.49286472E-05  -.60375524E-05
  -.70571632E-05  -.79848212E-05  -.88185745E-05  -.95571574E-05  -.10199967E-04
  -.10747038E-04  -.11199013E-04  -.11557110E-04  -.11823091E-04  -.11999229E-04
  -.12088265E-04  -.12093375E-04  -.12018133E-04  -.11866465E-04  -.11642615E-04
  -.11351102E-04  -.10996681E-04  -.10584305E-04  -.10119081E-04  -.96062361E-05
  -.90510796E-05  -.84589646E-05  -.78352541E-05  -.71852876E-05  -.65143485E-05
  -.58276337E-05  -.51302255E-05  -.44270644E-05  -.37229245E-05  -.30223909E-05
  -.23298390E-05  -.16494159E-05  -.98502427E-06  -.34030788E-06   .28136034E-06
   .87688824E-06   .14434723E-05   .19786035E-05   .24800708E-05   .29459635E-05
   .33746703E-05   .37648783E-05   .41155688E-05   .44260123E-05   .46957615E-05
   .49246432E-05   .51127486E-05   .52604227E-05   .53682520E-05   .54370519E-05
   .54678526E-05   .54618849E-05   .54205643E-05   .53454761E-05   .52383582E-05
   .51010854E-05   .49356522E-05   .47441561E-05   .45287807E-05   .42917792E-05
   .40354578E-05   .37621594E-05   .34742476E-05   .31740918E-05   .28640521E-05
   .25464648E-05   .22236291E-05   .18977946E-05   .15711482E-05   .12458040E-05
   .92379193E-06   .60704886E-06   .29740962E-06  -.34005756E-08  -.29377288E-06
  -.57222067E-06  -.83738436E-06  -.10880354E-05  -.13230790E-05  -.15415568E-05
  -.17426472E-05  -.19256664E-05  -.20900673E-05  -.22354387E-05  -.23615026E-05
  -.24681116E-05  -.25552453E-05  -.26230060E-05  -.26716143E-05  -.27014030E-05
  -.27128117E-05  -.27063805E-05  -.26827430E-05  -.26426197E-05  -.25868101E-05
  -.25161853E-05  -.24316807E-05  -.23342874E-05  -.22250445E-05  -.21050314E-05
  -.19753593E-05  -.18371638E-05  -.16915966E-05  -.15398183E-05  -.13829907E-05
  -.12222695E-05  -.10587979E-05  -.89369922E-06  -.72807107E-06  -.56297934E-06
  -.39945255E-06  -.23847680E-06  -.80990924E-07   .72117690E-07   .22001701E-06
   .36193371E-06   .49715612E-06   .62503663E-06   .74499373E-06   .85651348E-06
   .95915061E-06   .10525291E-05   .11363424E-05   .12103531E-05   .12743922E-05
   .13283584E-05   .13722162E-05   .14059942E-05   .14297834E-05   .14437339E-05
   .14480532E-05   .14430022E-05   .14288928E-05   .14060839E-05   .13749779E-05
   .13360169E-05   .12896792E-05   .12364746E-05   .11769406E-05   .11116385E-05
   .10411490E-05   .96606792E-06   .88700244E-06   .80456672E-06   .71937804E-06
   .63205286E-06   .54320310E-06   .45343242E-06   .36333283E-06   .27348127E-06
   .18443661E-06   .96736622E-07   .10895329E-07  -.72599497E-07  -.15328859E-06
  -.23074322E-06  -.30456694E-06  -.37439713E-06  -.43990627E-06  -.50080298E-06
  -.55683278E-06  -.60777861E-06  -.65346116E-06  -.69373887E-06  -.72850777E-06
  -.75770109E-06  -.78128862E-06  -.79927588E-06  -.81170308E-06  -.81864398E-06
  -.82020444E-06  -.81652092E-06  -.80775881E-06  -.79411058E-06  -.77579390E-06
  -.75304959E-06  -.72613952E-06  -.69534441E-06  -.66096159E-06  -.62330276E-06
  -.58269161E-06  -.53946159E-06  -.49395352E-06  -.44651333E-06  -.39748980E-06
  -.34723230E-06  -.29608866E-06  -.24440305E-06  -.19251395E-06  -.14075221E-06
  -.89439250E-07  -.38885286E-07   .10612272E-07   .58770318E-07   .10532142E-06
   .15001507E-06   .19261878E-06   .23291902E-06   .27072212E-06   .30585488E-06
   .33816511E-06   .36752209E-06   .39381678E-06   .41696193E-06   .43689209E-06
   .45356344E-06   .46695351E-06   .47706082E-06   .48390428E-06   .48752263E-06
   .48797365E-06   .48533339E-06   .47969516E-06   .47116860E-06   .45987856E-06
   .44596394E-06   .42957652E-06   .41087968E-06   .39004712E-06   .36726154E-06
   .34271325E-06   .31659889E-06   .28911997E-06   .26048159E-06   .23089104E-06
   .20055650E-06   .16968570E-06   .13848469E-06   .10715659E-06   .75900416E-07
   .44909940E-07   .14372645E-07  -.15531292E-07  -.44629931E-07  -.72760435E-07
  -.99769850E-07  -.12551582E-06  -.14986719E-06  -.17270458E-06  -.19392082E-06
  -.21342133E-06  -.23112439E-06  -.24696135E-06  -.26087678E-06  -.27282843E-06
  -.28278724E-06  -.29073718E-06  -.29667507E-06  -.30061029E-06  -.30256440E-06
  -.30257078E-06  -.30067411E-06  -.29692985E-06  -.29140365E-06  -.28417071E-06
  -.27531508E-06  -.26492897E-06  -.25311197E-06  -.23997030E-06  -.22561597E-06
  -.21016597E-06  -.19374143E-06  -.17646682E-06  -.15846904E-06  -.13987665E-06
  -.12081900E-06  -.10142543E-06  -.81824461E-07  -.62143040E-07  -.42505786E-07
  -.23034269E-07  -.38463369E-08   .14944533E-07   .33229835E-07   .50906589E-07
   .67877858E-07   .84053211E-07   .99349132E-07   .11368939E-06   .12700534E-06
   .13923619E-06   .15032919E-06   .16023980E-06   .16893177E-06   .17637719E-06
   .18255647E-06   .18745831E-06   .19107955E-06   .19342504E-06   .19450745E-06
   .19434698E-06   .19297112E-06   .19041429E-06   .18671751E-06   .18192797E-06
   .17609864E-06   .16928783E-06   .16155868E-06   .15297866E-06   .14361915E-06
   .13355480E-06   .12286309E-06   .11162376E-06   .99918262E-07   .87829244E-07
   .75440003E-07   .62833960E-07   .50094149E-07   .37302705E-07   .24540386E-07
   .11886098E-07  -.58355004E-09  -.12794672E-07  -.24676503E-07  -.36161768E-07
  -.47187031E-07  -.57693001E-07  -.67624813E-07  -.76932280E-07  -.85570102E-07
  -.93498045E-07  -.10068109E-06  -.10708954E-06  -.11269909E-06  -.11749089E-06
  -.12145151E-06  -.12457295E-06  -.12685258E-06  -.12829301E-06  -.12890200E-06
  -.12869233E-06  -.12768157E-06  -.12589189E-06  -.12334987E-06  -.12008621E-06
  -.11613547E-06  -.11153578E-06  -.10632853E-06  -.10055806E-06  -.94271339E-07
  -.87517587E-07  -.80347964E-07  -.72815198E-07  -.64973237E-07  -.56876891E-07
  -.48581476E-07  -.40142463E-07  -.31615139E-07  -.23054264E-07  -.14513744E-07
  -.60463209E-08   .22967348E-08   .10465910E-07   .18413718E-07   .26094957E-07
   .33466938E-07   .40489705E-07   .47126227E-07   .53342569E-07   .59108042E-07
   .64395333E-07   .69180605E-07   .73443582E-07   .77167602E-07   .80339654E-07
   .82950389E-07   .84994108E-07   .86468728E-07   .87375727E-07   .87720069E-07
   .87510106E-07   .86757464E-07   .85476914E-07   .83686214E-07   .81405953E-07
   .78659366E-07   .75472141E-07   .71872221E-07   .67889585E-07   .63556027E-07
   .58904927E-07   .53971017E-07   .48790141E-07   .43399014E-07   .37834981E-07
   .32135773E-07   .26339270E-07   .20483264E-07   .14605227E-07   .87420886E-08
   .29300151E-08  -.27957973E-08  -.84013221E-08  -.13853891E-07  -.19122372E-07
  -.24177330E-07  -.28991182E-07  -.33538329E-07  -.37795282E-07  -.41740768E-07
  -.45355819E-07  -.48623851E-07  -.51530720E-07  -.54064770E-07  -.56216856E-07
  -.57980360E-07  -.59351184E-07  -.60327732E-07  -.60910873E-07  -.61103898E-07
  -.60912449E-07  -.60344452E-07  -.59410019E-07  -.58121354E-07  -.56492638E-07
  -.54539907E-07  -.52280924E-07  -.49735035E-07  -.46923024E-07  -.43866963E-07
  -.40590049E-07  -.37116443E-07  -.33471107E-07  -.29679632E-07  -.25768076E-07
  -.21762786E-07  -.17690241E-07  -.13576880E-07  -.94489393E-08  -.53323003E-08
  -.12523303E-08   .27662621E-08   .66995690E-08   .10524616E-07   .14219490E-07
   .17763451E-07   .21137047E-07   .24322208E-07   .27302332E-07   .30062367E-07
   .32588875E-07   .34870089E-07   .36895954E-07   .38658165E-07   .40150185E-07
   .41367259E-07   .42306409E-07   .42966426E-07   .43347850E-07   .43452932E-07
   .43285594E-07   .42851380E-07   .42157390E-07   .41212215E-07   .40025857E-07
   .38609643E-07   .36976136E-07   .35139038E-07   .33113082E-07   .30913928E-07
   .28558051E-07   .26062627E-07   .23445413E-07   .20724630E-07   .17918843E-07
   .15046841E-07   .12127516E-07   .91797487E-08   .62222885E-08   .32736421E-08
   .35196302E-09  -.25250548E-08  -.53402782E-08  -.80772316E-08  -.10720188E-07
  -.13254253E-07  -.15665445E-07  -.17940764E-07  -.20068260E-07  -.22037085E-07
  -.23837547E-07  -.25461147E-07  -.26900615E-07  -.28149935E-07  -.29204362E-07
  -.30060431E-07  -.30715957E-07  -.31170031E-07  -.31423002E-07  -.31476457E-07
  -.31333194E-07  -.30997179E-07  -.30473510E-07  -.29768366E-07  -.28888950E-07
  -.27843430E-07  -.26640874E-07  -.25291179E-07  -.23804999E-07  -.22193665E-07
  -.20469106E-07  -.18643767E-07  -.16730524E-07  -.14742596E-07  -.12693461E-07
  -.10596768E-07  -.84662488E-08  -.63156341E-08  -.41585681E-08  -.20085260E-08
   .12126692E-09   .22179125E-08   .42689143E-08   .62622486E-08   .81864311E-08
   .10030580E-07   .11784472E-07   .13438598E-07   .14984210E-07   .16413362E-07
   .17718949E-07   .18894734E-07   .19935381E-07   .20836466E-07   .21594494E-07
   .22206911E-07   .22672095E-07   .22989364E-07   .23158956E-07   .23182022E-07
   .23060599E-07   .22797587E-07   .22396719E-07   .21862524E-07   .21200288E-07
   .20416010E-07   .19516355E-07   .18508601E-07   .17400589E-07   .16200662E-07
   .14917610E-07   .13560605E-07   .12139144E-07   .10662983E-07   .91420700E-08
   .75864872E-08   .60063826E-08   .44119074E-08   .28131540E-08   .12200940E-08
  -.35748113E-09  -.19100177E-08  -.34282557E-08  -.49032808E-08  -.63265753E-08
  -.76900639E-08  -.89861577E-08  -.10207794E-07  -.11348471E-07  -.12402282E-07
  -.13363941E-07  -.14228808E-07  -.14992908E-07  -.15652945E-07  -.16206313E-07
  -.16651102E-07  -.16986103E-07  -.17210800E-07  -.17325367E-07  -.17330655E-07
  -.17228180E-07  -.17020102E-07  -.16709202E-07  -.16298858E-07  -.15793016E-07
  -.15196154E-07  -.14513251E-07  -.13749747E-07  -.12911504E-07  -.12004764E-07
  -.11036104E-07  -.10012391E-07  -.89407384E-08  -.78284540E-08  -.66829961E-08
  -.55119235E-08  -.43228484E-08  -.31233881E-08  -.19211184E-08  -.72352741E-09
   .46202952E-09   .16283732E-08   .27685423E-08   .38758337E-08   .49438394E-08
   .59664828E-08   .69380511E-08   .78532257E-08   .87071095E-08   .94952512E-08
   .10213667E-07   .10858857E-07   .11427825E-07   .11918083E-07   .12327665E-07
   .12655131E-07   .12899566E-07   .13060582E-07   .13138312E-07   .13133400E-07
   .13046995E-07   .12880731E-07   .12636715E-07   .12317506E-07   .11926092E-07
   .11465868E-07   .10940609E-07   .10354440E-07   .97118083E-08   .90174489E-08
   .82763544E-08   .74937389E-08   .66750035E-08   .58257008E-08   .49514977E-08
   .40581401E-08   .31514157E-08   .22371178E-08   .13210099E-08   .40879021E-09
  -.49394241E-09  -.13817218E-08  -.22492462E-08  -.30914091E-08  -.39033278E-08
  -.46803710E-08  -.54181833E-08  -.61127094E-08  -.67602142E-08  -.73573023E-08
  -.79009342E-08  -.83884405E-08  -.88175333E-08  -.91863156E-08  -.94932876E-08
  -.97373511E-08  -.99178109E-08  -.10034374E-07  -.10087145E-07  -.10076622E-07
  -.10003689E-07  -.98696018E-08  -.96759797E-08  -.94247882E-08  -.91183232E-08
  -.87591928E-08  -.83502969E-08  -.78948055E-08  -.73961362E-08  -.68579292E-08
  -.62840228E-08  -.56784265E-08  -.50452945E-08  -.43888983E-08  -.37135986E-08
  -.30238172E-08  -.23240096E-08  -.16186362E-08  -.91213563E-09  -.20889690E-09
   .48676651E-09   .11706425E-08   .18386451E-08   .24868379E-08   .31114564E-08
   .37089293E-08   .42758979E-08   .48092342E-08   .53060572E-08   .57637476E-08
   .61799608E-08   .65526378E-08   .68800140E-08   .71606273E-08   .73933222E-08
   .75772540E-08   .77118897E-08   .77970075E-08   .78326943E-08   .78193414E-08
   .77576381E-08   .76485641E-08   .74933794E-08   .72936137E-08   .70510530E-08
   .67677257E-08   .64458873E-08   .60880032E-08   .56967316E-08   .52749040E-08
   .48255061E-08   .43516576E-08   .38565907E-08   .33436296E-08   .28161681E-08
   .22776484E-08   .17315391E-08   .11813134E-08   .63042781E-09   .82300788E-10
  -.45970763E-09  -.99231595E-09  -.15123405E-08  -.20167139E-08  -.25025024E-08
  -.29669226E-08  -.34073568E-08  -.38213667E-08  -.42067069E-08  -.45613359E-08
  -.48834267E-08  -.51713751E-08  -.54238070E-08  -.56395844E-08  -.58178091E-08
  -.59578260E-08  -.60592235E-08  -.61218338E-08  -.61457305E-08  -.61312258E-08
 atomic pseudo charge-density
   .14000000E+02   .13988361E+02   .13953614E+02   .13896261E+02   .13817117E+02
   .13717270E+02   .13598041E+02   .13460933E+02   .13307570E+02   .13139653E+02
   .12958900E+02   .12767006E+02   .12565606E+02   .12356241E+02   .12140339E+02
   .11919203E+02   .11693998E+02   .11465757E+02   .11235382E+02   .11003649E+02
   .10771221E+02   .10538658E+02   .10306428E+02   .10074919E+02   .98444513E+01
   .96152882E+01   .93876445E+01   .91616958E+01   .89375859E+01   .87154336E+01
   .84953376E+01   .82773813E+01   .80616367E+01   .78481672E+01   .76370299E+01
   .74282778E+01   .72219608E+01   .70181271E+01   .68168237E+01   .66180971E+01
   .64219934E+01   .62285587E+01   .60378389E+01   .58498798E+01   .56647267E+01
   .54824246E+01   .53030177E+01   .51265492E+01   .49530612E+01   .47825943E+01
   .46151873E+01   .44508771E+01   .42896986E+01   .41316839E+01   .39768631E+01
   .38252630E+01   .36769080E+01   .35318192E+01   .33900147E+01   .32515094E+01
   .31163149E+01   .29844396E+01   .28558886E+01   .27306634E+01   .26087624E+01
   .24901808E+01   .23749102E+01   .22629393E+01   .21542534E+01   .20488347E+01
   .19466626E+01   .18477133E+01   .17519602E+01   .16593739E+01   .15699225E+01
   .14835713E+01   .14002832E+01   .13200188E+01   .12427365E+01   .11683924E+01
   .10969407E+01   .10283337E+01   .96252186E+00   .89945401E+00   .83907740E+00
   .78133786E+00   .72617991E+00   .67354683E+00   .62338085E+00   .57562319E+00
   .53021421E+00   .48709353E+00   .44620010E+00   .40747234E+00   .37084824E+00
   .33626544E+00   .30366135E+00   .27297328E+00   .24413845E+00   .21709417E+00
   .19177790E+00   .16812731E+00   .14608041E+00   .12557562E+00   .10655184E+00
   .88948521E-01   .72705769E-01   .57764391E-01   .44065971E-01   .31552937E-01
   .20168620E-01   .98573152E-02   .56433654E-03  -.77639311E-02  -.15179983E-01
  -.21735148E-01  -.27479548E-01  -.32462057E-01  -.36730268E-01  -.40330456E-01
  -.43307556E-01  -.45705130E-01  -.47565352E-01  -.48928982E-01  -.49835356E-01
  -.50322369E-01  -.50426469E-01  -.50182648E-01  -.49624441E-01  -.48783924E-01
  -.47691719E-01  -.46376996E-01  -.44867484E-01  -.43189483E-01  -.41367873E-01
  -.39426137E-01  -.37386373E-01  -.35269317E-01  -.33094371E-01  -.30879619E-01
  -.28641864E-01  -.26396649E-01  -.24158293E-01  -.21939921E-01  -.19753500E-01
  -.17609873E-01  -.15518795E-01  -.13488972E-01  -.11528102E-01  -.96429104E-02
  -.78391927E-02  -.61218563E-02  -.44949611E-02  -.29617621E-02  -.15247513E-02
  -.18570028E-03   .10542972E-02   .21947831E-02   .32358928E-02   .41783132E-02
   .50232416E-02   .57723446E-02   .64277181E-02   .69918475E-02   .74675694E-02
   .78580335E-02   .81666659E-02   .83971337E-02   .85533097E-02   .86392396E-02
   .86591096E-02   .86172153E-02   .85179326E-02   .83656895E-02   .81649389E-02
   .79201339E-02   .76357040E-02   .73160323E-02   .69654355E-02   .65881438E-02
   .61882841E-02   .57698628E-02   .53367520E-02   .48926756E-02   .44411979E-02
   .39857132E-02   .35294370E-02   .30753983E-02   .26264337E-02   .21851824E-02
   .17540827E-02   .13353697E-02   .93107419E-03   .54302230E-03   .17283683E-03
  -.17806085E-03  -.50844785E-03  -.81729586E-03  -.11037665E-02  -.13672058E-02
  -.16071383E-02  -.18232598E-02  -.20154305E-02  -.21836668E-02  -.23281332E-02
  -.24491335E-02  -.25471016E-02  -.26225926E-02  -.26762732E-02  -.27089119E-02
  -.27213693E-02  -.27145886E-02  -.26895857E-02  -.26474395E-02  -.25892824E-02
  -.25162912E-02  -.24296772E-02  -.23306780E-02  -.22205484E-02  -.21005523E-02
  -.19719543E-02  -.18360126E-02  -.16939713E-02  -.15470537E-02  -.13964559E-02
  -.12433409E-02  -.10888331E-02  -.93401318E-03  -.77991360E-03  -.62751460E-03
  -.47774060E-03  -.33145709E-03  -.18946801E-03  -.52513674E-04   .78730957E-04
   .20365746E-03   .32172472E-03   .43245929E-03   .53545530E-03   .63037399E-03
   .71694288E-03   .79495457E-03   .86426520E-03   .92479261E-03   .97651420E-03
   .10194645E-02   .10537327E-02   .10794596E-02   .10968345E-02   .11060922E-02
   .11075098E-02   .11014027E-02   .10881216E-02   .10680484E-02   .10415930E-02
   .10091894E-02   .97129178E-03   .92837133E-03   .88091230E-03   .82940855E-03
   .77436010E-03   .71626974E-03   .65563980E-03   .59296902E-03   .52874955E-03
   .46346419E-03   .39758367E-03   .33156422E-03   .26584524E-03   .20084722E-03
   .13696983E-03   .74590187E-04   .14061373E-04  -.44288876E-04  -.10015926E-03
  -.15327584E-03  -.20339267E-03  -.25029237E-03  -.29378636E-03  -.33371503E-03
  -.36994761E-03  -.40238200E-03  -.43094429E-03  -.45558824E-03  -.47629452E-03
  -.49306989E-03  -.50594618E-03  -.51497919E-03  -.52024748E-03  -.52185105E-03
  -.51990994E-03  -.51456275E-03  -.50596512E-03  -.49428812E-03  -.47971664E-03
  -.46244771E-03  -.44268887E-03  -.42065643E-03  -.39657384E-03  -.37067003E-03
  -.34317771E-03  -.31433184E-03  -.28436802E-03  -.25352098E-03  -.22202313E-03
  -.19010316E-03  -.15798473E-03  -.12588520E-03  -.94014464E-04  -.62573903E-04
  -.31755356E-04  -.17402396E-05   .27301258E-04   .55210886E-04   .81842937E-04
   .10706476E-03   .13075716E-03   .15281474E-03   .17314609E-03   .19167392E-03
   .20833511E-03   .22308059E-03   .23587530E-03   .24669784E-03   .25554027E-03
   .26240766E-03   .26731767E-03   .27030003E-03   .27139596E-03   .27065757E-03
   .26814714E-03   .26393644E-03   .25810596E-03   .25074412E-03   .24194647E-03
   .23181486E-03   .22045657E-03   .20798350E-03   .19451130E-03   .18015850E-03
   .16504567E-03   .14929463E-03   .13302759E-03   .11636637E-03   .99431681E-04
   .82342314E-04   .65214506E-04   .48161249E-04   .31291674E-04   .14710473E-04
  -.14826342E-05  -.17193387E-04  -.32333421E-04  -.46820657E-04  -.60579633E-04
  -.73541796E-04  -.85645727E-04  -.96837331E-04  -.10706996E-03  -.11630450E-03
  -.12450938E-03  -.13166060E-03  -.13774162E-03  -.14274324E-03  -.14666353E-03
  -.14950752E-03  -.15128706E-03  -.15202051E-03  -.15173244E-03  -.15045331E-03
  -.14821908E-03  -.14507087E-03  -.14105453E-03  -.13622022E-03  -.13062195E-03
  -.12431717E-03  -.11736627E-03  -.10983215E-03  -.10177970E-03  -.93275403E-04
  -.84386808E-04  -.75182100E-04  -.65729641E-04  -.56097536E-04  -.46353202E-04
  -.36562964E-04  -.26791655E-04  -.17102252E-04  -.75555228E-05   .17903019E-05
   .10879829E-04   .19660779E-04   .28084238E-04   .36104875E-04   .43681137E-04
   .50775415E-04   .57354178E-04   .63388076E-04   .68852022E-04   .73725237E-04
   .77991271E-04   .81637995E-04   .84657566E-04   .87046367E-04   .88804922E-04
   .89937783E-04   .90453403E-04   .90363981E-04   .89685286E-04   .88436475E-04
   .86639874E-04   .84320768E-04   .81507160E-04   .78229524E-04   .74520556E-04
   .70414904E-04   .65948906E-04   .61160315E-04   .56088021E-04   .50771784E-04
   .45251954E-04   .39569202E-04   .33764257E-04   .27877644E-04   .21949429E-04
   .16018983E-04   .10124742E-04   .43039909E-05  -.14073486E-05  -.69749119E-05
  -.12366073E-04  -.17550108E-04  -.22498349E-04  -.27184313E-04  -.31583820E-04
  -.35675094E-04  -.39438840E-04  -.42858316E-04  -.45919369E-04  -.48610476E-04
  -.50922748E-04  -.52849929E-04  -.54388373E-04  -.55537008E-04  -.56297287E-04
  -.56673114E-04  -.56670770E-04  -.56298815E-04  -.55567984E-04  -.54491070E-04
  -.53082793E-04  -.51359669E-04  -.49339859E-04  -.47043022E-04  -.44490152E-04
  -.41703420E-04  -.38706003E-04  -.35521918E-04  -.32175849E-04  -.28692975E-04
  -.25098802E-04  -.21418991E-04  -.17679194E-04  -.13904890E-04  -.10121228E-04
  -.63528718E-05  -.26238578E-05   .10425472E-05   .46239762E-05   .80990852E-05
   .11447667E-04   .14650754E-04   .17690715E-04   .20551337E-04   .23217901E-04
   .25677239E-04   .27917790E-04   .29929638E-04   .31704543E-04   .33235954E-04
   .34519018E-04   .35550579E-04   .36329157E-04   .36854927E-04   .37129683E-04
   .37156794E-04   .36941149E-04   .36489095E-04   .35808369E-04   .34908018E-04
   .33798317E-04   .32490678E-04   .30997552E-04   .29332335E-04   .27509258E-04
   .25543280E-04   .23449983E-04   .21245454E-04   .18946177E-04   .16568918E-04
   .14130614E-04   .11648259E-04   .91387969E-05   .66190127E-05   .41054300E-05
   .16142095E-05  -.83894683E-06  -.32388870E-05  -.55710953E-05  -.78217726E-05
  -.99779111E-05  -.12027362E-04  -.13958896E-04  -.15762259E-04  -.17428217E-04
  -.18948600E-04  -.20316327E-04  -.21525439E-04  -.22571108E-04  -.23449652E-04
  -.24158535E-04  -.24696364E-04  -.25062871E-04  -.25258900E-04  -.25286378E-04
  -.25148281E-04  -.24848600E-04  -.24392291E-04  -.23785231E-04  -.23034159E-04
  -.22146619E-04  -.21130896E-04  -.19995951E-04  -.18751349E-04  -.17407188E-04
  -.15974025E-04  -.14462797E-04  -.12884748E-04  -.11251347E-04  -.95742153E-05
  -.78650434E-05  -.61355195E-05  -.43972516E-05  -.26616955E-05  -.94008363E-06
   .75664339E-06   .24179016E-05   .40335258E-05   .55938270E-05   .70896468E-05
   .85124069E-05   .98541536E-05   .11107599E-04   .12266154E-04   .13323963E-04
   .14275923E-04   .15117707E-04   .15845778E-04   .16457398E-04   .16950629E-04
   .17324336E-04   .17578178E-04   .17712594E-04   .17728794E-04   .17628730E-04
   .17415074E-04   .17091189E-04   .16661095E-04   .16129429E-04   .15501412E-04
   .14782794E-04   .13979818E-04   .13099167E-04   .12147912E-04   .11133463E-04
   .10063513E-04   .89459836E-05   .77889719E-05   .66006930E-05   .53894257E-05
   .41634583E-05   .29310340E-05   .17002992E-05   .47925176E-06  -.72430798E-06
  -.19028243E-05  -.30490312E-05  -.41559941E-05  -.52171499E-05  -.62263425E-05
  -.71778567E-05  -.80664472E-05  -.88873654E-05  -.96363813E-05  -.10309803E-04
  -.10904491E-04  -.11417870E-04  -.11847937E-04  -.12193262E-04  -.12452992E-04
  -.12626844E-04  -.12715098E-04  -.12718587E-04  -.12638682E-04  -.12477274E-04
  -.12236753E-04  -.11919985E-04  -.11530288E-04  -.11071397E-04  -.10547438E-04
  -.99628939E-05  -.93225692E-05  -.86315531E-05  -.78951827E-05  -.71190036E-05
  -.63087313E-05  -.54702108E-05  -.46093767E-05  -.37322130E-05  -.28447141E-05
  -.19528447E-05  -.10625024E-05  -.17948014E-06   .69056996E-06   .15421708E-05
   .23700531E-05   .31691864E-05   .39348081E-05   .46624498E-05   .53479618E-05
   .59875350E-05   .65777202E-05   .71154451E-05   .75980277E-05   .80231879E-05
   .83890560E-05   .86941783E-05   .89375199E-05   .91184647E-05   .92368130E-05
   .92927764E-05   .92869694E-05   .92203995E-05   .90944543E-05   .89108868E-05
   .86717977E-05   .83796168E-05   .80370819E-05   .76472161E-05   .72133038E-05
   .67388651E-05   .62276295E-05   .56835082E-05   .51105660E-05   .45129922E-05
   .38950717E-05   .32611557E-05   .26156320E-05   .19628965E-05   .13073238E-05
   .65323983E-06   .48938824E-08  -.63356752E-06  -.12581261E-05  -.18649159E-05
  -.24502461E-05  -.30106223E-05  -.35427663E-05  -.40436340E-05  -.45104316E-05
  -.49406297E-05  -.53319762E-05  -.56825063E-05  -.59905510E-05  -.62547432E-05
  -.64740223E-05  -.66476363E-05  -.67751420E-05  -.68564029E-05  -.68915858E-05
  -.68811549E-05  -.68258643E-05  -.67267486E-05  -.65851124E-05  -.64025168E-05
  -.61807664E-05  -.59218932E-05  -.56281404E-05  -.53019442E-05  -.49459156E-05
  -.45628205E-05  -.41555592E-05  -.37271463E-05  -.32806885E-05  -.28193639E-05
  -.23463998E-05  -.18650511E-05  -.13785788E-05  -.89022909E-06  -.40321199E-06
   .79318595E-07   .55428454E-06   .10187024E-05   .14697011E-05   .19045394E-05
   .23206211E-05   .27155101E-05   .30869437E-05   .34328449E-05   .37513326E-05
   .40407316E-05   .42995799E-05   .45266351E-05   .47208795E-05   .48815230E-05
   .50080055E-05   .50999963E-05   .51573936E-05   .51803215E-05   .51691262E-05
   .51243699E-05   .50468247E-05   .49374643E-05   .47974547E-05   .46281440E-05
   .44310509E-05   .42078525E-05   .39603712E-05   .36905608E-05   .34004919E-05
   .30923370E-05   .27683549E-05   .24308745E-05   .20822796E-05   .17249918E-05
   .13614549E-05   .99411858E-06   .62542245E-06   .25778052E-06  -.10643403E-06
  -.46490365E-06  -.81538053E-06  -.11557002E-05  -.14837943E-05  -.17977024E-05
  -.20955836E-05  -.23757261E-05  -.26365569E-05  -.28766499E-05  -.30947327E-05
  -.32896934E-05  -.34605847E-05  -.36066282E-05  -.37272169E-05  -.38219169E-05
  -.38904675E-05  -.39327808E-05  -.39489397E-05  -.39391950E-05  -.39039615E-05
  -.38438130E-05  -.37594768E-05  -.36518263E-05  -.35218738E-05  -.33707621E-05
  -.31997550E-05  -.30102278E-05  -.28036572E-05  -.25816097E-05  -.23457310E-05
  -.20977338E-05  -.18393863E-05  -.15725000E-05  -.12989171E-05  -.10204985E-05
  -.73911187E-06  -.45661893E-06  -.17486400E-06   .10433781E-06   .37921183E-06
   .64803475E-06   .90914502E-06   .11609527E-05   .14019487E-05   .16307136E-05
   .18459254E-05   .20463669E-05   .22309318E-05   .23986311E-05   .25485971E-05
   .26800879E-05   .27924904E-05   .28853226E-05   .29582350E-05   .30110109E-05
   .30435666E-05   .30559496E-05   .30483372E-05   .30210331E-05   .29744644E-05
   .29091767E-05   .28258298E-05   .27251911E-05   .26081302E-05   .24756113E-05
   .23286864E-05   .21684867E-05   .19962152E-05   .18131373E-05   .16205724E-05
   .14198845E-05   .12124730E-05   .99976313E-06   .78319652E-06   .56422183E-06
   .34428531E-06   .12482148E-06  -.92755848E-07  -.30706247E-06  -.51675228E-06
  -.72052542E-06  -.91713613E-06  -.11054000E-05  -.12842010E-05  -.14524975E-05
  -.16093283E-05  -.17538180E-05  -.18851811E-05  -.20027263E-05  -.21058598E-05
  -.21940878E-05  -.22670185E-05  -.23243636E-05  -.23659387E-05  -.23916632E-05
  -.24015599E-05  -.23957532E-05  -.23744674E-05  -.23380241E-05  -.22868387E-05
  -.22214169E-05  -.21423503E-05  -.20503115E-05  -.19460489E-05  -.18303810E-05
  -.17041904E-05  -.15684172E-05  -.14240522E-05  -.12721305E-05  -.11137236E-05
  -.94993250E-06  -.78188017E-06  -.61070410E-06  -.43754878E-06  -.26355826E-06
  -.89868782E-07   .82398432E-07   .25214423E-06   .41829836E-06   .57982602E-06
   .73573413E-06   .88507725E-06   .10269631E-05   .11605578E-05   .12850904E-05
   .13998572E-05   .15042258E-05   .15976379E-05   .16796124E-05   .17497474E-05
   .18077222E-05   .18532983E-05   .18863196E-05   .19067135E-05   .19144894E-05
   .19097382E-05   .18926309E-05   .18634165E-05   .18224193E-05   .17700363E-05
   .17067339E-05   .16330437E-05   .15495587E-05   .14569288E-05   .13558558E-05
   .12470885E-05   .11314173E-05   .10096684E-05   .88269853E-06   .75138875E-06
   .61663863E-06   .47936020E-06   .34047194E-06   .20089277E-06   .61536143E-07
  -.76695861E-07  -.21291819E-06  -.34626838E-06  -.47591190E-06  -.60104721E-06
  -.72091065E-06  -.83478091E-06  -.94198330E-06  -.10418936E-05  -.11339416E-05
  -.12176140E-05  -.12924575E-05  -.13580809E-05  -.14141568E-05  -.14604234E-05
  -.14966852E-05  -.15228137E-05  -.15387476E-05  -.15444924E-05  -.15401193E-05
  -.15257650E-05  -.15016289E-05  -.14679723E-05  -.14251151E-05  -.13734338E-05
  -.13133580E-05  -.12453675E-05  -.11699882E-05  -.10877885E-05  -.99937506E-06
  -.90538854E-06  -.80649903E-06  -.70340142E-06  -.59681064E-06  -.48745679E-06
  -.37608030E-06  -.26342695E-06  -.15024306E-06  -.37270564E-07   .74757695E-07
   .18512265E-06   .29312355E-06   .39808225E-06   .49934746E-06   .59629864E-06
   .68834972E-06   .77495255E-06   .85560008E-06   .92982920E-06   .99722333E-06
   .10574146E-05   .11100858E-05   .11549720E-05   .11918613E-05   .12205962E-05
   .12410741E-05   .12532466E-05   .12571204E-05   .12527557E-05   .12402660E-05
   .12198162E-05   .11916215E-05   .11559453E-05   .11130969E-05   .10634292E-05
   .10073359E-05   .94524827E-06   .87763252E-06   .80498589E-06   .72783333E-06
   .64672375E-06   .56222627E-06   .47492620E-06   .38542116E-06   .29431703E-06
   .20222391E-06   .10975213E-06   .17508247E-07  -.73908835E-07  -.16391170E-06
  -.25192813E-06  -.33740468E-06  -.41981005E-06  -.49863838E-06  -.57341223E-06
  -.64368543E-06  -.70904565E-06  -.76911673E-06  -.82356081E-06  -.87208005E-06
  -.91441825E-06  -.95036205E-06  -.97974188E-06  -.10024326E-05  -.10183540E-05
  -.10274706E-05  -.10297917E-05  -.10253708E-05  -.10143045E-05  -.99673193E-06
  -.97283317E-06  -.94282758E-06  -.90697211E-06  -.86555921E-06  -.81891458E-06
 17.0075338972103118 T
 Non local Part
 1 2 1.42483014276140318
 -19.3116750135285180 1.15651569312746694 1.15651569312746694 8.35437929212855046
 Reciprocal Space Part
   .00000000E+00   .38789916E+00   .77278352E+00   .11516723E+01   .15216520E+01
   .18799094E+01   .22237623E+01   .25506890E+01   .28583554E+01   .31446398E+01
   .34076542E+01   .36457627E+01   .38575971E+01   .40420679E+01   .41983719E+01
   .43259968E+01   .44247210E+01   .44946102E+01   .45360103E+01   .45495370E+01
   .45360619E+01   .44966959E+01   .44327696E+01   .43458116E+01   .42375249E+01
   .41097612E+01   .39644947E+01   .38037946E+01   .36297972E+01   .34446785E+01
   .32506266E+01   .30498155E+01   .28443794E+01   .26363894E+01   .24278309E+01
   .22205837E+01   .20164047E+01   .18169119E+01   .16235721E+01   .14376909E+01
   .12604048E+01   .10926769E+01   .93529495E+00   .78887142E+00   .65384689E+00
   .53049506E+00   .41893015E+00   .31911612E+00   .23087746E+00   .15391152E+00
   .87801776E-01   .32032112E-01  -.13998415E-01  -.50960458E-01  -.79579222E-01
  -.10061950E+00  -.11487114E+00  -.12313514E+00  -.12621063E+00  -.12488274E+00
  -.11991175E+00  -.11202335E+00  -.10190032E+00  -.90175585E-01  -.77426635E-01
  -.64171397E-01  -.50865480E-01  -.37900749E-01  -.25605165E-01  -.14243794E-01
  -.40208810E-02   .49171299E-02   .12477766E-01   .18618017E-01   .23339287E-01
   .26681954E-01   .28719679E-01   .29553585E-01   .29306454E-01   .28117039E-01
   .26134621E-01   .23513883E-01   .20410198E-01   .16975391E-01   .13354022E-01
   .96802379E-02   .60751988E-02   .26450975E-02  -.52023974E-03  -.33481913E-02
  -.57836450E-02  -.77888132E-02  -.93426034E-02  -.10439602E-01  -.11088731E-01
  -.11311635E-01  -.11140877E-01  -.10617986E-01  -.97914374E-02  -.87146183E-02
 Real Space Part
   .00000000E+00   .45673033E+00   .91064621E+00   .13589852E+01   .17990870E+01
   .22284409E+01   .26447279E+01   .30458573E+01   .34299960E+01   .37955901E+01
   .41413782E+01   .44663954E+01   .47699699E+01   .50517100E+01   .53114849E+01
   .55493982E+01   .57657556E+01   .59610294E+01   .61358195E+01   .62908132E+01
   .64267461E+01   .65443634E+01   .66443861E+01   .67274795E+01   .67942293E+01
   .68451220E+01   .68805333E+01   .69007228E+01   .69058362E+01   .68959141E+01
   .68709067E+01   .68306947E+01   .67751137E+01   .67039831E+01   .66171365E+01
   .65144526E+01   .63958870E+01   .62615008E+01   .61114873E+01   .59461945E+01
   .57661423E+01   .55720350E+01   .53647667E+01   .51454217E+01   .49152669E+01
   .46757398E+01   .44284293E+01   .41750524E+01   .39174260E+01   .36574355E+01
   .33970009E+01   .31380419E+01   .28824422E+01   .26320150E+01   .23884708E+01
   .21533871E+01   .19281828E+01   .17140956E+01   .15121660E+01   .13232245E+01
   .11478857E+01   .98654689E+00   .83939192E+00   .70639989E+00   .58735825E+00
   .48187944E+00   .38942075E+00   .30930646E+00   .24075156E+00   .18288630E+00
   .13478083E+00   .95469249E-01   .63972383E-01   .39318853E-01   .20563887E-01
   .68056008E-02  -.28015057E-02  -.90359546E-02  -.12601621E-01  -.14122910E-01
  -.14142618E-01  -.13122245E-01  -.11444468E-01  -.94174442E-02  -.72805785E-02
  -.52113969E-02  -.33331538E-02  -.17228286E-02  -.41919140E-03   .56934410E-03
   .12573193E-02   .16754723E-02   .18647625E-02   .18712718E-02   .17420256E-02
   .15217364E-02   .12504354E-02   .96192351E-03   .68295233E-03   .43302721E-03
 Reciprocal Space Part
   .00000000E+00   .65364562E+00   .12969722E+01   .19198370E+01   .25124463E+01
   .30655218E+01   .35704575E+01   .40194634E+01   .44056950E+01   .47233640E+01
   .49678306E+01   .51356737E+01   .52247392E+01   .52341650E+01   .51643830E+01
   .50170974E+01   .47952404E+01   .45029069E+01   .41452690E+01   .37284716E+01
   .32595131E+01   .27461118E+01   .21965616E+01   .16195803E+01   .10241519E+01
   .41936828E+00  -.18572905E+00  -.78230248E+00  -.13618651E+01  -.19164177E+01
  -.24385742E+01  -.29216723E+01  -.33598691E+01  -.37482181E+01  -.40827291E+01
  -.43604079E+01  -.45792773E+01  -.47383783E+01  -.48377529E+01  -.48784086E+01
  -.48622664E+01  -.47920935E+01  -.46714225E+01  -.45044590E+01  -.42959801E+01
  -.40512261E+01  -.37757867E+01  -.34754862E+01  -.31562674E+01  -.28240794E+01
  -.24847687E+01  -.21439777E+01  -.18070511E+01  -.14789521E+01  -.11641904E+01
  -.86676193E+00  -.59010159E+00  -.33704928E+00  -.10982961E+00   .89955253E-01
   .26131985E+00   .40387753E+00   .51781136E+00   .60383491E+00   .66314432E+00
   .69736298E+00   .70848047E+00   .69878731E+00   .67080706E+00   .62722759E+00
   .57083277E+00   .50443634E+00   .43081914E+00   .35267092E+00   .27253787E+00
   .19277660E+00   .11551543E+00   .42623258E-01  -.24313511E-01  -.84006098E-01
  -.13547048E+00  -.17802695E+00  -.21129244E+00  -.23516637E+00  -.24981058E+00
  -.25562432E+00  -.25321511E+00  -.24336646E+00  -.22700350E+00  -.20515735E+00
  -.17892935E+00  -.14945593E+00  -.11787510E+00  -.85295132E-01  -.52766306E-01
  -.21256074E-01   .83718013E-02   .35373901E-01   .59139393E-01   .79197828E-01
 Real Space Part
   .00000000E+00  -.33518861E-01  -.82007980E-01  -.15994967E+00  -.28086467E+00
  -.45686677E+00  -.69825860E+00  -.10131806E+01  -.14073233E+01  -.18837109E+01
  -.24425632E+01  -.30812386E+01  -.37942607E+01  -.45734268E+01  -.54079955E+01
  -.62849471E+01  -.71893095E+01  -.81045401E+01  -.90129522E+01  -.98961739E+01
  -.10735626E+02  -.11513006E+02  -.12210765E+02  -.12812560E+02  -.13303679E+02
  -.13671414E+02  -.13905389E+02  -.13997814E+02  -.13943680E+02  -.13740879E+02
  -.13390242E+02  -.12895514E+02  -.12263247E+02  -.11502628E+02  -.10625246E+02
  -.96448068E+01  -.85767908E+01  -.74380895E+01  -.62466077E+01  -.50208548E+01
  -.37795322E+01  -.25411292E+01  -.13235367E+01  -.14368755E+00   .98276611E+00
   .20417343E+01   .30209215E+01   .39100079E+01   .47007751E+01   .53871779E+01
   .59653606E+01   .64336215E+01   .67923296E+01   .70437960E+01   .71921083E+01
   .72429326E+01   .72032909E+01   .70813209E+01   .68860252E+01   .66270177E+01
   .63142734E+01   .59578876E+01   .55678516E+01   .51538468E+01   .47250644E+01
   .42900512E+01   .38565837E+01   .34315734E+01   .30210001E+01   .26298759E+01
   .22622352E+01   .19211513E+01   .16087742E+01   .13263884E+01   .10744862E+01
   .85285349E+00   .66066389E+00   .49657786E+00   .35884371E+00   .24539710E+00
   .15395648E+00   .82112238E-01   .27407464E-01  -.12590780E-01  -.40230835E-01
  -.57726864E-01  -.67120432E-01  -.70252943E-01  -.68748343E-01  -.64005207E-01
  -.57197134E-01  -.49280236E-01  -.41006414E-01  -.32941091E-01  -.25484100E-01
  -.18892485E-01  -.13304091E-01  -.87609469E-02  -.52315912E-02  -.26316815E-02
 Non local Part
 2 2 1.42483014276140318
 20.6836375656163405 -6.93368929790366639 -6.93368929790366639 2.14679055333156876
 Reciprocal Space Part
   .00000000E+00   .15399685E-01   .61350034E-01   .13710935E+00   .24145615E+00
   .37271082E+00   .52876543E+00   .70712092E+00   .90493119E+00   .11190529E+01
   .13461004E+01   .15825044E+01   .18245732E+01   .20685559E+01   .23107054E+01
   .25473411E+01   .27749092E+01   .29900402E+01   .31896015E+01   .33707464E+01
   .35309554E+01   .36680723E+01   .37803324E+01   .38663831E+01   .39252977E+01
   .39565796E+01   .39601604E+01   .39363893E+01   .38860159E+01   .38101660E+01
   .37103114E+01   .35882346E+01   .34459887E+01   .32858540E+01   .31102918E+01
   .29218966E+01   .27233473E+01   .25173592E+01   .23066370E+01   .20938295E+01
   .18814876E+01   .16720255E+01   .14676868E+01   .12705143E+01   .10823257E+01
   .90469417E+00   .73893488E+00   .58609664E+00   .44695927E+00   .32203610E+00
   .21158147E+00   .11560276E+00   .33876548E-01  -.34031778E-01  -.88745356E-01
  -.13105092E+00  -.16187219E+00  -.18224219E+00  -.19327526E+00  -.19613922E+00
  -.19202836E+00  -.18213784E+00  -.16763983E+00  -.14966186E+00  -.12926781E+00
  -.10744167E+00  -.85074195E-01  -.62952832E-01  -.41754585E-01  -.22042026E-01
  -.42622096E-02   .11251656E-01   .24276027E-01   .34690613E-01   .42470053E-01
   .47674018E-01   .50436120E-01   .50951964E-01   .49466730E-01   .46262625E-01
   .41646534E-01   .35938178E-01   .29459036E-01   .22522274E-01   .15423858E-01
   .84349960E-02   .17960096E-02  -.42883178E-02  -.96519052E-02  -.14169084E-01
  -.17754926E-01  -.20364289E-01  -.21989718E-01  -.22658352E-01  -.22428013E-01
  -.21382649E-01  -.19627338E-01  -.17283022E-01  -.14481161E-01  -.11358478E-01
 Real Space Part
   .00000000E+00   .13126126E-01   .52262490E-01   .11669055E+00   .20523746E+00
   .31631225E+00   .44795452E+00   .59789397E+00   .76361861E+00   .94244901E+00
   .11316161E+01   .13283397E+01   .15299047E+01   .17337326E+01   .19374457E+01
   .21389223E+01   .23363396E+01   .25282052E+01   .27133744E+01   .28910540E+01
   .30607926E+01   .32224578E+01   .33762022E+01   .35224188E+01   .36616887E+01
   .37947230E+01   .39223012E+01   .40452086E+01   .41641760E+01   .42798228E+01
   .43926068E+01   .45027824E+01   .46103681E+01   .47151258E+01   .48165514E+01
   .49138774E+01   .50060877E+01   .50919431E+01   .51700177E+01   .52387432E+01
   .52964610E+01   .53414779E+01   .53721267E+01   .53868254E+01   .53841359E+01
   .53628188E+01   .53218826E+01   .52606254E+01   .51786678E+01   .50759761E+01
   .49528753E+01   .48100505E+01   .46485383E+01   .44697072E+01   .42752292E+01
   .40670426E+01   .38473076E+01   .36183563E+01   .33826399E+01   .31426722E+01
   .29009745E+01   .26600203E+01   .24221847E+01   .21896965E+01   .19645977E+01
   .17487083E+01   .15435993E+01   .13505731E+01   .11706517E+01   .10045736E+01
   .85279746E+00   .71551249E+00   .59265588E+00   .48393472E+00   .38885240E+00
   .30673808E+00   .23677819E+00   .17804877E+00   .12954767E+00   .90225712E-01
   .59015812E-01   .34859548E-01   .16730495E-01   .36539832E-02  -.52769560E-02
  -.10889549E-01  -.13923074E-01  -.15024304E-01  -.14746312E-01  -.13550239E-01
  -.11809605E-01  -.98166598E-02  -.77902805E-02  -.58849218E-02  -.42001442E-02
  -.27902867E-02  -.16739033E-02  -.84264500E-03  -.26933262E-03   .84961019E-04
 Reciprocal Space Part
   .00000000E+00   .55925549E-01   .22258126E+00   .49661653E+00   .87248795E+00
   .13425210E+01   .18969969E+01   .25242657E+01   .32108854E+01   .39417882E+01
   .47004735E+01   .54692280E+01   .62293727E+01   .69615348E+01   .76459431E+01
   .82627447E+01   .87923399E+01   .92157305E+01   .95148763E+01   .96730555E+01
   .96752217E+01   .95083494E+01   .91617629E+01   .86274383E+01   .79002730E+01
   .69783126E+01   .58629302E+01   .45589494E+01   .30747066E+01   .14220461E+01
  -.38375320E+00  -.23241243E+01  -.43774299E+01  -.65192516E+01  -.87227470E+01
  -.10959069E+02  -.13197843E+02  -.15407689E+02  -.17556786E+02  -.19613459E+02
  -.21546780E+02  -.23327177E+02  -.24927022E+02  -.26321198E+02  -.27487624E+02
  -.28407728E+02  -.29066860E+02  -.29454616E+02  -.29565096E+02  -.29397054E+02
  -.28953964E+02  -.28243974E+02  -.27279769E+02  -.26078333E+02  -.24660620E+02
  -.23051129E+02  -.21277416E+02  -.19369525E+02  -.17359377E+02  -.15280113E+02
  -.13165417E+02  -.11048824E+02  -.89630474E+01  -.69393222E+01  -.50067901E+01
  -.31919399E+01  -.15181146E+01  -.50968653E-02   .13312178E+01   .24790530E+01
   .34308846E+01   .41834724E+01   .47377922E+01   .50988704E+01   .52755273E+01
   .52800373E+01   .51277167E+01   .48364490E+01   .44261632E+01   .39182783E+01
   .33351287E+01   .26993870E+01   .20334971E+01   .13591337E+01   .69670152E+00
   .64884415E-01  -.51974272E+00  -.10430328E+01  -.14935088E+01  -.18625256E+01
  -.21443499E+01  -.23361582E+01  -.24379564E+01  -.24524249E+01  -.23846975E+01
  -.22420813E+01  -.20337278E+01  -.17702676E+01  -.14634183E+01  -.11255794E+01
 Real Space Part
   .00000000E+00   .11261026E+00   .43864459E+00   .94323010E+00   .15699464E+01
   .22433072E+01   .28720966E+01   .33534299E+01   .35773783E+01   .34319760E+01
   .28084138E+01   .16062121E+01  -.26182811E+00  -.28650941E+01  -.62512297E+01
  -.10442960E+02  -.15435800E+02  -.21196751E+02  -.27664023E+02  -.34747832E+02
  -.42332217E+02  -.50277855E+02  -.58425739E+02  -.66601632E+02  -.74621107E+02
  -.82295014E+02  -.89435190E+02  -.95860190E+02  -.10140087E+03  -.10590558E+03
  -.10924491E+03  -.11131562E+03  -.11204387E+03  -.11138746E+03  -.10933715E+03
  -.10591686E+03  -.10118296E+03  -.95222559E+02  -.88150835E+02  -.80107655E+02
  -.71253455E+02  -.61764613E+02  -.51828461E+02  -.41638084E+02  -.31387102E+02
  -.21264581E+02  -.11450243E+02  -.21101052E+01   .66073153E+01   .14574153E+02
   .21685611E+02   .27861606E+02   .33047623E+02   .37214793E+02   .40359219E+02
   .42500622E+02   .43680371E+02   .43959006E+02   .43413355E+02   .42133359E+02
   .40218720E+02   .37775504E+02   .34912790E+02   .31739483E+02   .28361379E+02
   .24878552E+02   .21383128E+02   .17957493E+02   .14672942E+02   .11588804E+02
   .87520014E+01   .61970480E+01   .39464261E+01   .20113094E+01   .39256701E+00
  -.91800834E+00  -.19363146E+01  -.26844594E+01  -.31892457E+01  -.34806806E+01
  -.35905585E+01  -.35511599E+01  -.33941003E+01  -.31493548E+01  -.28444719E+01
  -.25039842E+01  -.21490139E+01  -.17970623E+01  -.14619700E+01  -.11540241E+01
  -.88018996E+00  -.64444121E+00  -.44815891E+00  -.29057488E+00  -.16923275E+00
  -.80444450E-01  -.19722350E-01   .17828687E-01   .37171280E-01   .43055280E-01
 Non local Part
 0 2 1.42483014276140318
 3.03008364309744893 -0.307063262319207553 -0.307063262319207553 0.389068896570595249E-01
 Reciprocal Space Part
   .23582123E+02   .23532940E+02   .23385878E+02   .23142396E+02   .22804898E+02
   .22376705E+02   .21862012E+02   .21265823E+02   .20593889E+02   .19852631E+02
   .19049049E+02   .18190636E+02   .17285272E+02   .16341129E+02   .15366561E+02
   .14370001E+02   .13359858E+02   .12344411E+02   .11331716E+02   .10329508E+02
   .93451224E+01   .83854115E+01   .74566786E+01   .65646184E+01   .57142687E+01
   .49099731E+01   .41553544E+01   .34533000E+01   .28059580E+01   .22147442E+01
   .16803596E+01   .12028178E+01   .78148091E+00   .41510394E+00   .10188609E+00
  -.16047222E+00  -.37470743E+00  -.54392750E+00  -.67154430E+00  -.76120491E+00
  -.81672310E+00  -.84201218E+00  -.84102011E+00  -.81766806E+00  -.77579316E+00
  -.71909632E+00  -.65109565E+00  -.57508606E+00  -.49410538E+00  -.41090722E+00
  -.32794070E+00  -.24733693E+00  -.17090218E+00  -.10011733E+00  -.36143310E-01
   .20168018E-01   .68258089E-01   .10784160E+00   .13888290E+00   .16156949E+00
   .17628340E+00   .18357115E+00   .18411299E+00   .17869209E+00   .16816443E+00
   .15342980E+00   .13540454E+00   .11499650E+00   .93082508E-01   .70488683E-01
   .47973830E-01   .26215999E-01   .58023059E-02  -.12778054E-01  -.29137656E-01
  -.42991755E-01  -.54156449E-01  -.62544376E-01  -.68158248E-01  -.71082560E-01
  -.71473833E-01  -.69549741E-01  -.65577520E-01  -.59861988E-01  -.52733539E-01
  -.44536415E-01  -.35617561E-01  -.26316304E-01  -.16955075E-01  -.78313447E-02
   .78909458E-03   .86774251E-02   .15645631E-01   .21548865E-01   .26286385E-01
   .29801158E-01   .32078209E-01   .33141886E-01   .33052163E-01   .31900175E-01
 Real Space Part
   .14462297E+02   .14461028E+02   .14457120E+02   .14450274E+02   .14440008E+02
   .14425680E+02   .14406515E+02   .14381645E+02   .14350150E+02   .14311097E+02
   .14263594E+02   .14206824E+02   .14140092E+02   .14062859E+02   .13974771E+02
   .13875682E+02   .13765663E+02   .13645009E+02   .13514230E+02   .13374034E+02
   .13225303E+02   .13069057E+02   .12906419E+02   .12738562E+02   .12566666E+02
   .12391867E+02   .12215206E+02   .12037587E+02   .11859730E+02   .11682140E+02
   .11505081E+02   .11328558E+02   .11152308E+02   .10975806E+02   .10798282E+02
   .10618737E+02   .10435987E+02   .10248699E+02   .10055442E+02   .98547432E+01
   .96451411E+01   .94252480E+01   .91938053E+01   .89497385E+01   .86922062E+01
   .84206424E+01   .81347907E+01   .78347290E+01   .75208837E+01   .71940330E+01
   .68552996E+01   .65061327E+01   .61482798E+01   .57837501E+01   .54147694E+01
   .50437301E+01   .46731353E+01   .43055417E+01   .39435006E+01   .35895004E+01
   .32459122E+01   .29149391E+01   .25985716E+01   .22985504E+01   .20163359E+01
   .17530871E+01   .15096489E+01   .12865476E+01   .10839955E+01   .90190315E+00
   .73989797E+00   .59735010E+00   .47340241E+00   .36700462E+00   .27694992E+00
   .20191279E+00   .14048699E+00   .91222384E-01   .52659739E-01   .23362538E-01
   .19451437E-02  -.12903226E-01  -.22399050E-01  -.27649737E-01  -.29643536E-01
  -.29243945E-01  -.27188308E-01  -.24090180E-01  -.20444938E-01  -.16638077E-01
  -.12955563E-01  -.95956507E-02  -.66815486E-02  -.42743830E-02  -.23859561E-02
  -.99086469E-03  -.37629791E-04   .54143186E-03   .82177312E-03   .87971618E-03
 Reciprocal Space Part
   .27883343E+02   .27954021E+02   .28164465E+02   .28509941E+02   .28982659E+02
   .29571926E+02   .30264355E+02   .31044122E+02   .31893273E+02   .32792073E+02
   .33719384E+02   .34653074E+02   .35570440E+02   .36448644E+02   .37265146E+02
   .37998131E+02   .38626925E+02   .39132377E+02   .39497218E+02   .39706379E+02
   .39747264E+02   .39609977E+02   .39287493E+02   .38775774E+02   .38073831E+02
   .37183725E+02   .36110510E+02   .34862124E+02   .33449228E+02   .31884990E+02
   .30184837E+02   .28366156E+02   .26447973E+02   .24450607E+02   .22395299E+02
   .20303839E+02   .18198185E+02   .16100094E+02   .14030754E+02   .12010446E+02
   .10058225E+02   .81916310E+01   .64264414E+01   .47764551E+01   .32533245E+01
   .18664306E+01   .62280391E+00  -.47290897E+00  -.14184326E+01  -.22138071E+01
  -.28612911E+01  -.33652267E+01  -.37318710E+01  -.39691981E+01  -.40866766E+01
  -.40950285E+01  -.40059743E+01  -.38319710E+01  -.35859474E+01  -.32810426E+01
  -.29303540E+01  -.25466974E+01  -.21423860E+01  -.17290297E+01  -.13173599E+01
  -.91708164E+00  -.53675370E+00  -.18370016E+00   .13604832E+00   .41778252E+00
   .65811346E+00   .85494319E+00   .10074099E+01   .11158098E+01   .11814987E+01
   .12067766E+01   .11947589E+01   .11492378E+01   .10745373E+01   .97536631E+00
   .85667226E+00   .72349936E+00   .58085432E+00   .43358220E+00   .28625478E+00
   .14307341E+00   .77876865E-02  -.11636880E+00  -.22672537E+00  -.32120354E+00
  -.39832904E+00  -.45722742E+00  -.49760426E+00  -.51971149E+00  -.52430150E+00
  -.51257100E+00  -.48609662E+00  -.44676467E+00  -.39669691E+00  -.33817488E+00
 Real Space Part
   .15138964E+03   .15112740E+03   .15034594E+03   .14906092E+03   .14729789E+03
   .14509147E+03   .14248432E+03   .13952573E+03   .13627019E+03   .13277562E+03
   .12910170E+03   .12530801E+03   .12145233E+03   .11758892E+03   .11376706E+03
   .11002967E+03   .10641224E+03   .10294204E+03   .99637558E+02   .96508307E+02
   .93554916E+02   .90769522E+02   .88136447E+02   .85633127E+02   .83231259E+02
   .80898114E+02   .78597986E+02   .76293699E+02   .73948137E+02   .71525747E+02
   .68993940E+02   .66324373E+02   .63494050E+02   .60486222E+02   .57291047E+02
   .53906007E+02   .50336060E+02   .46593541E+02   .42697814E+02   .38674693E+02
   .34555664E+02   .30376934E+02   .26178339E+02   .22002170E+02   .17891932E+02
   .13891104E+02   .10041916E+02   .63842095E+01   .29543879E+01  -.21549073E+00
  -.30984686E+01  -.56732664E+01  -.79246751E+01  -.98437578E+01  -.11427863E+02
  -.12680456E+02  -.13610789E+02  -.14233416E+02  -.14567590E+02  -.14636558E+02
  -.14466785E+02  -.14087132E+02  -.13528024E+02  -.12820624E+02  -.11996047E+02
  -.11084625E+02  -.10115261E+02  -.91148600E+01  -.81078691E+01  -.71159260E+01
  -.61576138E+01  -.52483269E+01  -.44002389E+01  -.36223666E+01  -.29207169E+01
  -.22985065E+01  -.17564384E+01  -.12930212E+01  -.90491611E+00  -.58729815E+00
  -.33421656E+00  -.13894381E+00   .56978801E-02   .10704081E+00   .17231330E+00
   .20842261E+00   .22178177E+00   .21818045E+00   .20269872E+00   .17966073E+00
   .15262440E+00   .12440210E+00   .97106795E-01   .72217946E-01   .50661264E-01
   .32896719E-01   .19009710E-01   .88008308E-02   .18704504E-02  -.23048780E-02
 PAW radial sets
 333 0.950033776649352624
(5E20.12)                                
 augmentation charges (non sperical)
   .733505396324E+00  -.555083358825E+00   .607622380246E+00  -.144722249601E+00  -.155901199920E+00
   .333092622850E-01  -.555083358825E+00   .375689312757E+00  -.426370429086E+00   .967291105417E-01
   .776140634772E-01  -.236718805671E-01   .607622380246E+00  -.426370429086E+00   .602806359533E+00
  -.139611383856E+00  -.964349173433E-01   .277700174514E-01  -.144722249601E+00   .967291105417E-01
  -.139611383856E+00   .319334656696E-01   .187691608083E-01  -.608645693819E-02  -.155901199920E+00
   .776140634772E-01  -.964349173433E-01   .187691608083E-01  -.237974438990E-02  -.622670703202E-02
   .333092622850E-01  -.236718805671E-01   .277700174514E-01  -.608645693819E-02  -.622670703202E-02
   .126553954909E-02
 uccopancies in atom
   .199999999977E+01   .000000000000E+00   .000000000000E+00   .000000000000E+00   .000000000000E+00
   .000000000000E+00   .000000000000E+00   .000000000000E+00   .000000000000E+00   .000000000000E+00
   .000000000000E+00   .000000000000E+00   .000000000000E+00   .000000000000E+00   .139999997296E+01
   .000000000000E+00   .000000000000E+00   .000000000000E+00   .000000000000E+00   .000000000000E+00
   .000000000000E+00   .000000000000E+00   .000000000000E+00   .000000000000E+00   .000000000000E+00
   .000000000000E+00   .000000000000E+00   .000000000000E+00   .999999999276E+00   .000000000000E+00
   .000000000000E+00   .000000000000E+00   .000000000000E+00   .000000000000E+00   .000000000000E+00
   .000000000000E+00
 grid
   .444792170761E-04   .458690812442E-04   .473023751876E-04   .487804559781E-04   .503047230926E-04
   .518766197380E-04   .534976342178E-04   .551693013416E-04   .568932038775E-04   .586709740514E-04
   .605042950921E-04   .623949028251E-04   .643445873161E-04   .663551945659E-04   .684286282582E-04
   .705668515620E-04   .727718889904E-04   .750458283175E-04   .773908225552E-04   .798090919916E-04
   .823029262930E-04   .848746866723E-04   .875268081245E-04   .902618017317E-04   .930822570414E-04
   .959908445177E-04   .989903180702E-04   .102083517661E-03   .105273371995E-03   .108562901290E-03
   .111955220139E-03   .115453540459E-03   .119061174529E-03   .122781538132E-03   .126618153782E-03
   .130574654066E-03   .134654785077E-03   .138862409966E-03   .143201512599E-03   .147676201325E-03
   .152290712869E-03   .157049416346E-03   .161956817392E-03   .167017562433E-03   .172236443086E-03
   .177618400693E-03   .183168531000E-03   .188892088982E-03   .194794493821E-03   .200881334033E-03
   .207158372762E-03   .213631553235E-03   .220307004390E-03   .227191046680E-03   .234290198055E-03
   .241611180136E-03   .249160924578E-03   .256946579630E-03   .264975516909E-03   .273255338376E-03
   .281793883533E-03   .290599236847E-03   .299679735406E-03   .309043976810E-03   .318700827311E-03
   .328659430212E-03   .338929214520E-03   .349519903874E-03   .360441525754E-03   .371704420972E-03
   .383319253467E-03   .395297020396E-03   .407649062552E-03   .420387075099E-03   .433523118644E-03
   .447069630661E-03   .461039437262E-03   .475445765341E-03   .490302255103E-03   .505622972973E-03
   .521422424916E-03   .537715570175E-03   .554517835429E-03   .571845129403E-03   .589713857930E-03
   .608140939485E-03   .627143821201E-03   .646740495392E-03   .666949516586E-03   .687790019094E-03
   .709281735125E-03   .731445013472E-03   .754300838775E-03   .777870851394E-03   .802177367893E-03
   .827243402175E-03   .853092687269E-03   .879749697802E-03   .907239673170E-03   .935588641441E-03
   .964823443991E-03   .994971760923E-03   .102606213728E-02   .105812401005E-02   .109118773606E-02
   .112528462074E-02   .116044694769E-02   .119670800931E-02   .123410213833E-02   .127266474025E-02
   .131243232692E-02   .135344255112E-02   .139573424213E-02   .143934744261E-02   .148432344640E-02
   .153070483770E-02   .157853553135E-02   .162786081442E-02   .167872738909E-02   .173118341686E-02
   .178527856416E-02   .184106404937E-02   .189859269132E-02   .195791895929E-02   .201909902459E-02
   .208219081376E-02   .214725406337E-02   .221435037663E-02   .228354328168E-02   .235489829178E-02
   .242848296728E-02   .250436697965E-02   .258262217742E-02   .266332265418E-02   .274654481879E-02
   .283236746767E-02   .292087185944E-02   .301214179187E-02   .310626368117E-02   .320332664385E-02
   .330342258109E-02   .340664626575E-02   .351309543210E-02   .362287086839E-02   .373607651220E-02
   .385281954895E-02   .397321051329E-02   .409736339384E-02   .422539574106E-02   .435742877856E-02
   .449358751791E-02   .463400087695E-02   .477880180190E-02   .492812739321E-02   .508211903537E-02
   .524092253078E-02   .540468823783E-02   .557357121318E-02   .574773135867E-02   .592733357266E-02
   .611254790615E-02   .630354972382E-02   .650051987007E-02   .670364484023E-02   .691311695713E-02
   .712913455321E-02   .735190215831E-02   .758163069331E-02   .781853766985E-02   .806284739624E-02
   .831479118989E-02   .857460759628E-02   .884254261485E-02   .911884993190E-02   .940379116081E-02
   .969763608969E-02   .100006629369E-01   .103131586143E-01   .106354189993E-01   .109677492144E-01
   .113104639167E-01   .116638875953E-01   .120283548790E-01   .124042108528E-01   .127918113847E-01
   .131915234628E-01   .136037255425E-01   .140288079052E-01   .144671730273E-01   .149192359620E-01
   .153854247315E-01   .158661807329E-01   .163619591556E-01   .168732294127E-01   .174004755852E-01
   .179441968805E-01   .185049081050E-01   .190831401513E-01   .196794405013E-01   .202943737442E-01
   .209285221114E-01   .215824860272E-01   .222568846781E-01   .229523565982E-01   .236695602746E-01
   .244091747701E-01   .251719003668E-01   .259584592287E-01   .267695960857E-01   .276060789386E-01
   .284686997862E-01   .293582753756E-01   .302756479748E-01   .312216861709E-01   .321972856919E-01
   .332033702553E-01   .342408924423E-01   .353108345999E-01   .364142097711E-01   .375520626538E-01
   .387254705901E-01   .399355445865E-01   .411834303656E-01   .424703094508E-01   .437974002854E-01
   .451659593859E-01   .465772825317E-01   .480327059922E-01   .495336077918E-01   .510814090147E-01
   .526775751505E-01   .543236174816E-01   .560210945143E-01   .577716134541E-01   .595768317279E-01
   .614384585530E-01   .633582565552E-01   .653380434383E-01   .673796937046E-01   .694851404298E-01
   .716563770937E-01   .738954594671E-01   .762045075584E-01   .785857076214E-01   .810413142243E-01
   .835736523853E-01   .861851197734E-01   .888781889790E-01   .916554098543E-01   .945194119286E-01
   .974729068968E-01   .100518691188E+00   .103659648612E+00   .106898753092E+00   .110239071477E+00
   .113683766447E+00   .117236099511E+00   .120899434089E+00   .124677238700E+00   .128573090247E+00
   .132590677400E+00   .136733804093E+00   .141006393122E+00   .145412489860E+00   .149956266089E+00
   .154642023949E+00   .159474200010E+00   .164457369474E+00   .169596250507E+00   .174895708706E+00
   .180360761705E+00   .185996583927E+00   .191808511483E+00   .197802047223E+00   .203982865949E+00
   .210356819784E+00   .216929943718E+00   .223708461317E+00   .230698790620E+00   .237907550211E+00
   .245341565490E+00   .253007875134E+00   .260913737759E+00   .269066638797E+00   .277474297579E+00
   .286144674648E+00   .295085979291E+00   .304306677318E+00   .313815499071E+00   .323621447696E+00
   .333733807664E+00   .344162153563E+00   .354916359160E+00   .366006606756E+00   .377443396822E+00
   .389237557943E+00   .401400257069E+00   .413943010089E+00   .426877692738E+00   .440216551834E+00
   .453972216880E+00   .468157712017E+00   .482786468360E+00   .497872336712E+00   .513429600678E+00
   .529472990191E+00   .546017695458E+00   .563079381341E+00   .580674202188E+00   .598818817134E+00
   .617530405867E+00   .636826684899E+00   .656725924337E+00   .677246965184E+00   .698409237178E+00
   .720232777186E+00   .742738248179E+00   .765946958792E+00   .789880883502E+00   .814562683434E+00
   .840015727817E+00   .866264116108E+00   .893332700813E+00   .921247111018E+00   .950033776649E+00
   .979719953507E+00   .101033374906E+01   .104190414908E+01   .107446104506E+01   .110803526252E+01
   .114265859021E+01   .117836381020E+01   .121518472892E+01
 aepotential
   .142553756966E+05   .143731819423E+05   .144684844170E+05   .145405631657E+05   .145888729387E+05
   .146130223194E+05   .146127847456E+05   .145881001495E+05   .145390776393E+05   .144659985891E+05
   .143693095026E+05   .142496175816E+05   .141076863982E+05   .139444230440E+05   .137608635621E+05
   .135581691874E+05   .133376013258E+05   .131005095745E+05   .128483160684E+05   .125824971486E+05
   .123045661606E+05   .120160546359E+05   .117184994454E+05   .114134236157E+05   .111023235250E+05
   .107866547725E+05   .104678203519E+05   .101471605279E+05   .982594312873E+04   .950535734271E+04
   .918650738971E+04   .887040889537E+04   .855798638137E+04   .825007197296E+04   .794740587585E+04
   .765063764440E+04   .736032861185E+04   .707695502454E+04   .680091229308E+04   .653251921115E+04
   .627202315207E+04   .601960524677E+04   .577538585227E+04   .553943007162E+04   .531175325220E+04
   .509232638211E+04   .488108131642E+04   .467791577973E+04   .448269810279E+04   .429527166145E+04
   .411545899819E+04   .394306561477E+04   .377788343433E+04   .361969391144E+04   .346827085998E+04
   .332338291858E+04   .318479575683E+04   .305227398644E+04   .292558281390E+04   .280448944367E+04
   .268876429919E+04   .257818196970E+04   .247252208038E+04   .237156990007E+04   .227511688064E+04
   .218296102463E+04   .209490718434E+04   .201076723618E+04   .193036016753E+04   .185351214292E+04
   .178005644655E+04   .170983343321E+04   .164269039296E+04   .157848144612E+04   .151706729129E+04
   .145831514804E+04   .140209838473E+04   .134829644319E+04   .129679454671E+04   .124748345727E+04
   .120025931054E+04   .115502333748E+04   .111168163754E+04   .107014497623E+04   .103032854776E+04
   .992151800682E+03   .955538187353E+03   .920414983479E+03   .886713096677E+03   .854366905652E+03
   .823314032287E+03   .793495212032E+03   .764854138792E+03   .737337282700E+03   .710893758851E+03
   .685475190364E+03   .661035579929E+03   .637531164989E+03   .614920321543E+03   .593163440290E+03
   .572222820482E+03   .552062567382E+03   .532648504486E+03   .513948070414E+03   .495930245792E+03
   .478565461519E+03   .461825530790E+03   .445683569413E+03   .430113929775E+03   .415092140481E+03
   .400594834709E+03   .386599702485E+03   .373085429800E+03   .360031648742E+03   .347418887062E+03
   .335228522275E+03   .323442740843E+03   .312044488422E+03   .301017438658E+03   .290345950222E+03
   .280015037395E+03   .270010330627E+03   .260318044781E+03   .250924956668E+03   .241818365475E+03
   .232986074806E+03   .224416362187E+03   .216097955386E+03   .208020010940E+03   .200172089176E+03
   .192544136933E+03   .185126465159E+03   .177909729816E+03   .170884915711E+03   .164043318505E+03
   .157376527597E+03   .150876412821E+03   .144535106920E+03   .138344994214E+03   .132298695258E+03
   .126389055466E+03   .120609131953E+03   .114952182871E+03   .109411655705E+03   .103981177500E+03
   .986545442779E+02   .934257122151E+02   .882887878606E+02   .832380204053E+02   .782677929949E+02
   .733726153902E+02   .685471164332E+02   .637860375137E+02   .590842258166E+02   .544366284750E+02
   .498382868957E+02   .452843313274E+02   .407699764250E+02   .362905162530E+02   .318413207678E+02
   .274178320918E+02   .230155607157E+02   .186300839293E+02   .142570426543E+02   .989213969965E+01
   .553113915142E+01   .116986457503E+01  -.319580008457E+01  -.756991110389E+01  -.119564634681E+02
  -.163593894080E+02  -.207825561216E+02  -.252297626938E+02  -.297047362855E+02  -.342111277445E+02
  -.387525055667E+02  -.433323502078E+02  -.479540457869E+02  -.526208722794E+02  -.573359954604E+02
  -.621024560237E+02  -.669231574342E+02  -.718008523518E+02  -.767381271108E+02  -.817373853811E+02
  -.868008293209E+02  -.919304391967E+02  -.971279511247E+02  -.102394832502E+03  -.107732255238E+03
  -.113141066900E+03  -.118621759080E+03  -.124174433691E+03  -.129798766528E+03  -.135493968664E+03
  -.141258745538E+03  -.147091254337E+03  -.152989059970E+03  -.158949090600E+03  -.164967593785E+03
  -.171040094747E+03  -.177161358881E+03  -.183325361083E+03  -.189525265278E+03  -.195753418224E+03
  -.202001362382E+03  -.208259873405E+03  -.214519028076E+03  -.220768308500E+03  -.226996747524E+03
  -.233193117914E+03  -.239346164109E+03  -.245444868297E+03  -.251478732832E+03  -.257438046745E+03
  -.263314085923E+03  -.269099174956E+03  -.274786516856E+03  -.280369681006E+03  -.285841641358E+03
  -.291193291528E+03  -.296411451424E+03  -.301476528904E+03  -.306360255149E+03  -.311024015628E+03
  -.315418725246E+03  -.319486831489E+03  -.323166946883E+03  -.326400836024E+03  -.329141749447E+03
  -.331362506591E+03  -.333061600927E+03  -.334265968583E+03  -.335029723525E+03  -.335428881188E+03
  -.335552823902E+03  -.335494061841E+03  -.335338505921E+03  -.335158469893E+03  -.335009646406E+03
  -.334931791500E+03  -.334951689128E+03  -.335086721259E+03  -.335347890242E+03  -.335741881505E+03
  -.336272287319E+03  -.336940312523E+03  -.337745242307E+03  -.338684833216E+03  -.339755674582E+03
  -.340953510451E+03  -.342273495278E+03  -.343710362044E+03  -.345258496513E+03  -.346911921854E+03
  -.348664203427E+03  -.350508286273E+03  -.352436277151E+03  -.354439183004E+03  -.356506621097E+03
  -.358626521289E+03  -.360784853710E+03  -.362965432102E+03  -.365149866562E+03  -.367317763517E+03
  -.369447289559E+03  -.371516209938E+03  -.373503459319E+03  -.375391160661E+03  -.377166727490E+03
  -.378824215163E+03  -.380363433912E+03  -.381784718050E+03  -.383077363574E+03  -.384201991413E+03
  -.385072617338E+03  -.385551445716E+03  -.385472223736E+03  -.384698098847E+03  -.383196604071E+03
  -.381085398814E+03  -.378595841905E+03  -.375959611341E+03  -.373308613739E+03  -.370663295919E+03
  -.367984290440E+03  -.365223364316E+03  -.362346872375E+03  -.359338632626E+03  -.356194647582E+03
  -.352916799645E+03  -.349508241476E+03  -.345971015578E+03  -.342305475257E+03  -.338510759887E+03
  -.334585656545E+03  -.330529422841E+03  -.326342383480E+03  -.322026269699E+03  -.317584341019E+03
  -.313021355948E+03  -.308343443277E+03  -.303557919294E+03  -.298673077926E+03  -.293697972987E+03
  -.288642205159E+03  -.283515719271E+03  -.278328622513E+03  -.273091017836E+03  -.267812870463E+03
  -.262503896464E+03  -.257173482424E+03  -.251830631996E+03  -.246483949691E+03  -.241141621709E+03
  -.235811227395E+03  -.230497606044E+03  -.225211104602E+03  -.219958466920E+03  -.214746106759E+03
  -.209580059946E+03  -.204465953398E+03  -.199408963353E+03  -.194413780574E+03  -.189484597230E+03
  -.184625125581E+03  -.179838652785E+03  -.175128125015E+03  -.170496243661E+03  -.165945550963E+03
  -.161478482532E+03  -.157097373617E+03  -.152804420925E+03
 core charge-density
   .706305344741E-03   .750191563067E-03   .796801204316E-03   .846302941862E-03   .898875864319E-03
   .954710115716E-03   .101400757474E-02   .107698257540E-02   .114386267164E-02   .121488944851E-02
   .129031938269E-02   .137042475542E-02   .145549462082E-02   .154583583311E-02   .164177413609E-02
   .174365531870E-02   .185184644059E-02   .196673713185E-02   .208874097126E-02   .221829694795E-02
   .235587101108E-02   .250195771305E-02   .265708195162E-02   .282180081679E-02   .299670554873E-02
   .318242361305E-02   .337962090061E-02   .358900405888E-02   .381132296275E-02   .404737333279E-02
   .429799950960E-02   .456409739335E-02   .484661755799E-02   .514656855029E-02   .546502038437E-02
   .580310824286E-02   .616203639671E-02   .654308235593E-02   .694760126463E-02   .737703055408E-02
   .783289486843E-02   .831681127859E-02   .883049480026E-02   .937576423333E-02   .995454834053E-02
   .105688923841E-01   .112209650402E-01   .119130657128E-01   .126476322666E-01   .134272492052E-01
   .142546563161E-01   .151327578079E-01   .160646319685E-01   .170535413685E-01   .181029436425E-01
   .192165028757E-01   .203981016294E-01   .216518536381E-01   .229821172124E-01   .243935093855E-01
   .258909208385E-01   .274795316469E-01   .291648278864E-01   .309526191431E-01   .328490569707E-01
   .348606543413E-01   .369943061379E-01   .392573107370E-01   .416573927340E-01   .442027268616E-01
   .469019631592E-01   .497642534458E-01   .527992791566E-01   .560172806017E-01   .594290877065E-01
   .630461522978E-01   .668805819973E-01   .709451757863E-01   .752534613091E-01   .798197339780E-01
   .846590979484E-01   .897875090292E-01   .952218195960E-01   .100979825572E+00   .107080315541E+00
   .113543122063E+00   .120389175236E+00   .127640558595E+00   .135320567369E+00   .143453769173E+00
   .152066067182E+00   .161184765815E+00   .170838638980E+00   .181058000906E+00   .191874779578E+00
   .203322592795E+00   .215436826840E+00   .228254717758E+00   .241815435211E+00   .256160168870E+00
   .271332217272E+00   .287377079075E+00   .304342546599E+00   .322278801517E+00   .341238512550E+00
   .361276934972E+00   .382452011704E+00   .404824475731E+00   .428457953557E+00   .453419069339E+00
   .479777549309E+00   .507606326047E+00   .536981642094E+00   .567983152332E+00   .600694024521E+00
   .635201037262E+00   .671594674614E+00   .709969216507E+00   .750422823976E+00   .793057618182E+00
   .837979752051E+00   .885299473288E+00   .935131177370E+00   .987593449043E+00   .104280909068E+01
   .110090513577E+01   .116201284560E+01   .122626768717E+01   .129380929007E+01   .136478138000E+01
   .143933168652E+01   .151761182220E+01   .159977713058E+01   .168598649970E+01   .177640213834E+01
   .187118931137E+01   .197051603106E+01   .207455270053E+01   .218347170571E+01   .229744695197E+01
   .241665334144E+01   .254126618701E+01   .267146055886E+01   .280741055954E+01   .294928852337E+01
   .309726413615E+01   .325150347129E+01   .341216793845E+01   .357941314130E+01   .375338764087E+01
   .393423162184E+01   .412207545913E+01   .431703818291E+01   .451922584096E+01   .472872975764E+01
   .494562469017E+01   .516996688358E+01   .540179202702E+01   .564111311550E+01   .588791822254E+01
   .614216819103E+01   .640379425125E+01   .667269557732E+01   .694873679540E+01   .723174545929E+01
   .752150951205E+01   .781777475465E+01   .812024234576E+01   .842856636002E+01   .874235143516E+01
   .906115054186E+01   .938446291350E+01   .971173217650E+01   .100423447255E+02   .103756283905E+02
   .107108514473E+02   .110472220241E+02   .113838879615E+02   .117199371840E+02   .120543986437E+02
   .123862438980E+02   .127143893832E+02   .130376994457E+02   .133549901903E+02   .136650342048E+02
   .139665662112E+02   .142582896951E+02   .145388845510E+02   .148070157769E+02   .150613432392E+02
   .153005325162E+02   .155232668132E+02   .157282599267E+02   .159142702134E+02   .160801155024E+02
   .162246888603E+02   .163469750998E+02   .164460678896E+02   .165211872992E+02   .165716975815E+02
   .165971249655E+02   .165971752022E+02   .165717505785E+02   .165209660837E+02   .164451643904E+02
   .163449292871E+02   .162210971835E+02   .160747662949E+02   .159073031069E+02   .157203457221E+02
   .155158037005E+02   .152958540223E+02   .150629328354E+02   .148197226857E+02   .145691349832E+02
   .143142875219E+02   .140584769436E+02   .138051461263E+02   .135578465726E+02   .133201959794E+02
   .130958312836E+02   .128883575935E+02   .127012935371E+02   .125380136639E+02   .124016887094E+02
   .122952245241E+02   .122212007314E+02   .121818101788E+02   .121788003886E+02   .122134182994E+02
   .122863596629E+02   .123977245059E+02   .125469800777E+02   .127329326724E+02   .129537096338E+02
   .132067527135E+02   .134888237586E+02   .137960234530E+02   .141238235579E+02   .144671128079E+02
   .148202563481E+02   .151771683281E+02   .155313969993E+02   .158762213539E+02   .162047580237E+02
   .165100768143E+02   .167853229211E+02   .170238435745E+02   .172193166018E+02   .173658781891E+02
   .174582469790E+02   .174918415572E+02   .174628883621E+02   .173685171107E+02   .172068409601E+02
   .169770188385E+02   .166792976640E+02   .163150325422E+02   .158866834791E+02   .153977876668E+02
   .148529069901E+02   .142575510465E+02   .136180766710E+02   .129415656846E+02   .122356833272E+02
   .115085205691E+02   .107684241908E+02   .100238191293E+02   .928302807485E+01   .855409360110E+01
   .784460815343E+01   .716155695284E+01   .651117828851E+01   .589884471176E+01   .532896745709E+01
   .480492573774E+01   .432902208878E+01   .390246536042E+01   .352538477051E+01   .319687817462E+01
   .291509611021E+01   .267735825265E+01   .248029250163E+01   .231998346941E+01   .219212029629E+01
   .209214020959E+01   .201536767483E+01   .195714816012E+01   .191297356905E+01   .187859546407E+01
   .185012240440E+01   .182409850947E+01   .179756136592E+01   .176807845638E+01   .173376232645E+01
   .169326565343E+01   .164575818807E+01   .159088817098E+01   .152873126283E+01   .145973026820E+01
   .138462898494E+01   .130440339974E+01   .122019319391E+01   .113323616095E+01   .104480769719E+01
   .956167043705E+00   .868511452013E+00   .782939006259E+00   .700420360497E+00   .621779128291E+00
   .547680629737E+00   .478628144210E+00   .414965752320E+00   .356886694653E+00   .304446106273E+00
   .257576973440E+00   .216108157774E+00   .179783475427E+00   .148281116558E+00   .121232285922E+00
   .982385248944E-01   .788872671502E-01   .627653027620E-01   .494699713178E-01   .386180354775E-01
   .298522975008E-01   .228461100937E-01   .173059985746E-01   .129726545569E-01   .962058397975E-02
   .705669707387E-02   .511811779566E-02   .366946860873E-02
 pspotential
  -.402379368488E+03  -.402382277428E+03  -.402385098218E+03  -.402387833529E+03  -.402390485951E+03
  -.402393057994E+03  -.402395552094E+03  -.402397970611E+03  -.402400315836E+03  -.402402589988E+03
  -.402404795221E+03  -.402406933621E+03  -.402409007214E+03  -.402411017962E+03  -.402412967768E+03
  -.402414858479E+03  -.402416691883E+03  -.402418469717E+03  -.402420193663E+03  -.402421865353E+03
  -.402423486368E+03  -.402425058243E+03  -.402426582466E+03  -.402428060478E+03  -.402429493680E+03
  -.402430883426E+03  -.402432231031E+03  -.402433537772E+03  -.402434804882E+03  -.402436033563E+03
  -.402437224975E+03  -.402438380244E+03  -.402439500466E+03  -.402440586697E+03  -.402441639965E+03
  -.402442661266E+03  -.402443651565E+03  -.402444611798E+03  -.402445542873E+03  -.402446445667E+03
  -.402447321036E+03  -.402448169803E+03  -.402448992772E+03  -.402449790719E+03  -.402450564396E+03
  -.402451314533E+03  -.402452041836E+03  -.402452746993E+03  -.402453430665E+03  -.402454093498E+03
  -.402454736114E+03  -.402455359118E+03  -.402455963095E+03  -.402456548613E+03  -.402457116219E+03
  -.402457666447E+03  -.402458199812E+03  -.402458716812E+03  -.402459217930E+03  -.402459703635E+03
  -.402460174377E+03  -.402460630596E+03  -.402461072714E+03  -.402461501142E+03  -.402461916276E+03
  -.402462318498E+03  -.402462708179E+03  -.402463085676E+03  -.402463451334E+03  -.402463805488E+03
  -.402464148458E+03  -.402464480554E+03  -.402464802076E+03  -.402465113312E+03  -.402465414538E+03
  -.402465706022E+03  -.402465988019E+03  -.402466260775E+03  -.402466524526E+03  -.402466779498E+03
  -.402467025908E+03  -.402467263960E+03  -.402467493853E+03  -.402467715773E+03  -.402467929898E+03
  -.402468136395E+03  -.402468335425E+03  -.402468527136E+03  -.402468711669E+03  -.402468889153E+03
  -.402469059711E+03  -.402469223453E+03  -.402469380482E+03  -.402469530889E+03  -.402469674758E+03
  -.402469812160E+03  -.402469943159E+03  -.402470067804E+03  -.402470186139E+03  -.402470298192E+03
  -.402470403984E+03  -.402470503522E+03  -.402470596803E+03  -.402470683810E+03  -.402470764513E+03
  -.402470838873E+03  -.402470906833E+03  -.402470968324E+03  -.402471023263E+03  -.402471071550E+03
  -.402471113070E+03  -.402471147691E+03  -.402471175266E+03  -.402471195625E+03  -.402471208584E+03
  -.402471213936E+03  -.402471211453E+03  -.402471200887E+03  -.402471181963E+03  -.402471154384E+03
  -.402471117828E+03  -.402471071943E+03  -.402471016349E+03  -.402470950636E+03  -.402470874361E+03
  -.402470787049E+03  -.402470688186E+03  -.402470577220E+03  -.402470453561E+03  -.402470316574E+03
  -.402470165580E+03  -.402469999849E+03  -.402469818603E+03  -.402469621008E+03  -.402469406174E+03
  -.402469173149E+03  -.402468920916E+03  -.402468648391E+03  -.402468354414E+03  -.402468037750E+03
  -.402467697082E+03  -.402467331004E+03  -.402466938019E+03  -.402466516529E+03  -.402466064835E+03
  -.402465581122E+03  -.402465063462E+03  -.402464509796E+03  -.402463917937E+03  -.402463285552E+03
  -.402462610160E+03  -.402461889117E+03  -.402461119611E+03  -.402460298648E+03  -.402459423041E+03
  -.402458489401E+03  -.402457494117E+03  -.402456433352E+03  -.402455303018E+03  -.402454098770E+03
  -.402452815983E+03  -.402451449736E+03  -.402449994795E+03  -.402448445592E+03  -.402446796205E+03
  -.402445040331E+03  -.402443171269E+03  -.402441181889E+03  -.402439064609E+03  -.402436811362E+03
  -.402434413571E+03  -.402431862111E+03  -.402429147277E+03  -.402426258748E+03  -.402423185547E+03
  -.402419915999E+03  -.402416437687E+03  -.402412737407E+03  -.402408801116E+03  -.402404613877E+03
  -.402400159810E+03  -.402395422022E+03  -.402390382551E+03  -.402385022295E+03  -.402379320941E+03
  -.402373256885E+03  -.402366807157E+03  -.402359947329E+03  -.402352651422E+03  -.402344891816E+03
  -.402336639136E+03  -.402327862148E+03  -.402318527639E+03  -.402308600293E+03  -.402298042558E+03
  -.402286814505E+03  -.402274873675E+03  -.402262174927E+03  -.402248670259E+03  -.402234308637E+03
  -.402219035798E+03  -.402202794049E+03  -.402185522051E+03  -.402167154589E+03  -.402147622330E+03
  -.402126851563E+03  -.402104763925E+03  -.402081276108E+03  -.402056299550E+03  -.402029740107E+03
  -.402001497701E+03  -.401971465953E+03  -.401939531786E+03  -.401905575007E+03  -.401869467868E+03
  -.401831074590E+03  -.401790250869E+03  -.401746843343E+03  -.401700689033E+03  -.401651614744E+03
  -.401599436440E+03  -.401543958571E+03  -.401484973362E+03  -.401422260069E+03  -.401355584178E+03
  -.401284696563E+03  -.401209332598E+03  -.401129211209E+03  -.401044033881E+03  -.400953483597E+03
  -.400857223727E+03  -.400754896844E+03  -.400646123484E+03  -.400530500825E+03  -.400407601307E+03
  -.400276971162E+03  -.400138128875E+03  -.399990563559E+03  -.399833733246E+03  -.399667063086E+03
  -.399489943458E+03  -.399301727987E+03  -.399101731458E+03  -.398889227634E+03  -.398663446972E+03
  -.398423574235E+03  -.398168745994E+03  -.397898048026E+03  -.397610512609E+03  -.397305115702E+03
  -.396980774029E+03  -.396636342051E+03  -.396270608847E+03  -.395882294899E+03  -.395470048785E+03
  -.395032443801E+03  -.394567974513E+03  -.394075053255E+03  -.393552006589E+03  -.392997071752E+03
  -.392408393107E+03  -.391784018623E+03  -.391121896437E+03  -.390419871501E+03  -.389675682393E+03
  -.388886958323E+03  -.388051216392E+03  -.387165859181E+03  -.386228172735E+03  -.385235325035E+03
  -.384184365046E+03  -.383072222460E+03  -.381895708242E+03  -.380651516131E+03  -.379336225227E+03
  -.377946303848E+03  -.376478114828E+03  -.374927922464E+03  -.373291901331E+03  -.371566147200E+03
  -.369746690322E+03  -.367829511358E+03  -.365810560243E+03  -.363685778314E+03  -.361451124020E+03
  -.359102602575E+03  -.356636299906E+03  -.354048421268E+03  -.351335334908E+03  -.348493621137E+03
  -.345520127192E+03  -.342412028233E+03  -.339166894815E+03  -.335782767130E+03  -.332258236284E+03
  -.328592532820E+03  -.324785622642E+03  -.320838310401E+03  -.316752350342E+03  -.312530564456E+03
  -.308176967643E+03  -.303696899340E+03  -.299097160651E+03  -.294386155273E+03  -.289574031115E+03
  -.284672816722E+03  -.279696541165E+03  -.274661315337E+03  -.269585331843E+03  -.264488701972E+03
  -.259392980094E+03  -.254320118406E+03  -.249290461780E+03  -.244319328647E+03  -.239412006233E+03
  -.234558111025E+03  -.229728097966E+03  -.224876895734E+03  -.219971482590E+03  -.215013126242E+03
  -.210070867172E+03  -.205255402617E+03  -.200511466353E+03  -.195313615990E+03  -.189203618402E+03
  -.184328594739E+03  -.179616448923E+03  -.174978074563E+03  -.170409615690E+03  -.165916075380E+03
  -.161482100382E+03  -.157097524808E+03  -.152804420925E+03
 core charge-density (pseudized)
   .859127508394E-08   .913657532397E-08   .971648653226E-08   .103332055153E-07   .109890685139E-07
   .116865600535E-07   .124283223556E-07   .132171653473E-07   .140560773056E-07   .149482361778E-07
   .158970216198E-07   .169060277990E-07   .179790770094E-07   .191202341517E-07   .203338221312E-07
   .216244382342E-07   .229969715429E-07   .244566214566E-07   .260089173875E-07   .276597397075E-07
   .294153420235E-07   .312823748678E-07   .332679108911E-07   .353794716550E-07   .376250561250E-07
   .400131709722E-07   .425528627975E-07   .452537524023E-07   .481260712336E-07   .511807001422E-07
   .544292106017E-07   .578839085428E-07   .615578809708E-07   .654650455410E-07   .696202032813E-07
   .740390946613E-07   .787384592196E-07   .837360989762E-07   .890509458695E-07   .947031334738E-07
   .100714073269E-06   .107106535749E-06   .113904736685E-06   .121134428854E-06   .128822999594E-06
   .136999574559E-06   .145695128044E-06   .154942600325E-06   .164777022440E-06   .175235648895E-06
   .186358098788E-06   .198186505893E-06   .210765678272E-06   .224143268010E-06   .238369951736E-06
   .253499622585E-06   .269589594365E-06   .286700818659E-06   .304898115729E-06   .324250420059E-06
   .344831041492E-06   .366717942939E-06   .389994035713E-06   .414747493609E-06   .441072086924E-06
   .469067537664E-06   .498839897315E-06   .530501948572E-06   .564173632584E-06   .599982503300E-06
   .638064210665E-06   .678563014478E-06   .721632330868E-06   .767435313451E-06   .816145471379E-06
   .867947326612E-06   .923037112906E-06   .981623519170E-06   .104392848001E-05   .111018801641E-05
   .118065312985E-05   .125559075308E-05   .133528476132E-05   .142003704756E-05   .151016866618E-05
   .160602104914E-05   .170795729931E-05   .181636356596E-05   .193165050747E-05   .205425484695E-05
   .218464102655E-05   .232330296678E-05   .247076593749E-05   .262758854756E-05   .279436486095E-05
   .297172664696E-05   .316034577337E-05   .336093675143E-05   .357425944241E-05   .380112193583E-05
   .404238361049E-05   .429895838966E-05   .457181820291E-05   .486199666763E-05   .517059300418E-05
   .549877619956E-05   .584778943521E-05   .621895479593E-05   .661367827754E-05   .703345511241E-05
   .747987543284E-05   .795463029396E-05   .845951807876E-05   .899645130955E-05   .956746389172E-05
   .101747188171E-04   .108205163562E-04   .115073027702E-04   .122376795757E-04   .130144133977E-04
   .138404464471E-04   .147189076637E-04   .156531245655E-04   .166466358505E-04   .177032047973E-04
   .188268335164E-04   .200217781058E-04   .212925647669E-04   .226440069443E-04   .240812235516E-04
   .256096583541E-04   .272351005806E-04   .289637068423E-04   .308020244428E-04   .327570161652E-04
   .348360866321E-04   .370471103372E-04   .393984614537E-04   .418990455332E-04   .445583332151E-04
   .473863960715E-04   .503939447266E-04   .535923693903E-04   .569937829626E-04   .606110668696E-04
   .644579198033E-04   .685489095514E-04   .728995281098E-04   .775262502873E-04   .824465960225E-04
   .876791966475E-04   .932438653489E-04   .991616720887E-04   .105455023270E-03   .112147746447E-03
   .119265180389E-03   .126834270855E-03   .134883672419E-03   .143443856735E-03   .152547227658E-03
   .162228243632E-03   .172523547822E-03   .183472106466E-03   .195115355965E-03   .207497359269E-03
   .220664972129E-03   .234668019845E-03   .249559485165E-03   .265395708036E-03   .282236597942E-03
   .300145859624E-03   .319191233021E-03   .339444748307E-03   .360982996983E-03   .383887420010E-03
   .408244614055E-03   .434146656961E-03   .461691453661E-03   .490983103767E-03   .522132292213E-03
   .555256704346E-03   .590481466994E-03   .627939617100E-03   .667772599615E-03   .710130796455E-03
   .755174088411E-03   .803072452021E-03   .854006593550E-03   .908168622306E-03   .965762765692E-03
   .102700612850E-02   .109212949912E-02   .116137820542E-02   .123501302340E-02   .131331114151E-02
   .139656718424E-02   .148509429813E-02   .157922530417E-02   .167931392019E-02   .178573605745E-02
   .189889119563E-02   .201920384072E-02   .214712507044E-02   .228313417216E-02   .242774037842E-02
   .258148470547E-02   .274494190038E-02   .291872250257E-02   .310347502588E-02   .329988826739E-02
   .350869374962E-02   .373066830283E-02   .396663679433E-02   .421747501198E-02   .448411270919E-02
   .476753681899E-02   .506879484449E-02   .538899843373E-02   .572932714630E-02   .609103241966E-02
   .647544174249E-02   .688396304267E-02   .731808929697E-02   .777940336913E-02   .826958308280E-02
   .879040653476E-02   .934375765338E-02   .993163200606E-02   .105561428582E-01   .112195274850E-01
   .119241537346E-01   .126725268408E-01   .134672964792E-01   .143112640584E-01   .152073902346E-01
   .161588026337E-01   .171688037605E-01   .182408790677E-01   .193787051551E-01   .205861580560E-01
   .218673215667E-01   .232264955591E-01   .246682042106E-01   .261972040711E-01   .278184918721E-01
   .295373119709E-01   .313591633021E-01   .332898056893E-01   .353352653503E-01   .375018394003E-01
   .397960991337E-01   .422248918317E-01   .447953408097E-01   .475148433793E-01   .503910663607E-01
   .534319387302E-01   .566456409413E-01   .600405904008E-01   .636254225192E-01   .674089666927E-01
   .714002165012E-01   .756082933329E-01   .800424025649E-01   .847117813462E-01   .896256369406E-01
   .947930744970E-01   .100223013022E+00   .105924088239E+00   .111904540927E+00   .118172089252E+00
   .124733783526E+00   .131595841768E+00   .138763464409E+00   .146240626456E+00   .154029845456E+00
   .162131923677E+00   .170545663021E+00   .179267551413E+00   .188291419650E+00   .197608068133E+00
   .207204863360E+00   .217065304806E+00   .227168563586E+00   .237488995441E+00   .247995631828E+00
   .258651654545E+00   .269413861186E+00   .280232131010E+00   .291048903438E+00   .301798684482E+00
   .312407599876E+00   .322793017663E+00   .332863267347E+00   .342517487495E+00   .351645638768E+00
   .360128724628E+00   .367839267268E+00   .374642091288E+00   .380395472059E+00   .384952708957E+00
   .388164185136E+00   .389879974478E+00   .389953051772E+00   .388243152833E+00   .384621315861E+00
   .378975112113E+00   .371214541258E+00   .361278522599E+00   .349141855800E+00   .334822452023E+00
   .318388547106E+00   .299965501904E+00   .279741671615E+00   .257972688241E+00   .234983352872E+00
   .211166185635E+00   .186975543331E+00   .162916106377E+00   .139524482302E+00   .117342705289E+00
   .968825705608E-01   .785800771672E-01   .627398177320E-01   .494700066772E-01   .386180354775E-01
   .298522975008E-01   .228461100937E-01   .173059985746E-01   .129726545569E-01   .962058397975E-02
   .705669707387E-02   .511811779566E-02   .366946860873E-02
 pseudo wavefunction
   .108716378895E-07   .115616759463E-07   .122955116832E-07   .130759249999E-07   .139058722406E-07
   .147884973926E-07   .157271439965E-07   .167253678121E-07   .177869502882E-07   .189159128875E-07
   .201165323205E-07   .213933567464E-07   .227512230025E-07   .241952749269E-07   .257309828442E-07
   .273641642882E-07   .291010060396E-07   .309480875627E-07   .329124059296E-07   .350014023262E-07
   .372229902409E-07   .395855854422E-07   .420981378591E-07   .447701654849E-07   .476117904333E-07
   .506337772827E-07   .538475738539E-07   .572653545769E-07   .609000666098E-07   .647654788845E-07
   .688762342662E-07   .732479050228E-07   .778970518158E-07   .828412864346E-07   .880993385132E-07
   .936911264812E-07   .996378330183E-07   .105961985298E-06   .112687540325E-06   .119839975687E-06
   .127446386070E-06   .135535585896E-06   .144138218479E-06   .153286872103E-06   .163016203478E-06
   .173363069022E-06   .184366664478E-06   .196068673397E-06   .208513425043E-06   .221748062315E-06
   .235822720337E-06   .250790716377E-06   .266708751820E-06   .283637126965E-06   .301639969451E-06
   .320785477182E-06   .341146176674E-06   .362799197798E-06   .385826565956E-06   .410315512812E-06
   .436358806737E-06   .464055104228E-06   .493509323640E-06   .524833042628E-06   .558144920826E-06
   .593571149341E-06   .631245928792E-06   .671311977675E-06   .713921073010E-06   .759234625288E-06
   .807424289920E-06   .858672617495E-06   .913173745304E-06   .971134132762E-06   .103277334350E-05
   .109832487712E-05   .116803705369E-05   .124217395444E-05   .132101642213E-05   .140486312491E-05
   .149403168771E-05   .158885989545E-05   .168970697262E-05   .179695494401E-05   .191101008193E-05
   .203230444515E-05   .216129751562E-05   .229847793901E-05   .244436537575E-05   .259951246954E-05
   .276450694079E-05   .293997381300E-05   .312657778029E-05   .332502572541E-05   .353606939733E-05
   .376050825899E-05   .399919251562E-05   .425302633536E-05   .452297127425E-05   .481004991860E-05
   .511534975852E-05   .544002730734E-05   .578531248236E-05   .615251326381E-05   .654302064929E-05
   .695831392283E-05   .739996625820E-05   .786965067795E-05   .836914639057E-05   .890034552984E-05
   .946526032193E-05   .100660307072E-04   .107049324461E-04   .113843857386E-04   .121069643919E-04
   .128754055687E-04   .136926201551E-04   .145617037854E-04   .154859485677E-04   .164688555523E-04
   .175141479925E-04   .186257854463E-04   .198079787725E-04   .210652060793E-04   .224022296841E-04
   .238241141499E-04   .253362454658E-04   .269443514444E-04   .286545234141E-04   .304732392867E-04
   .324073880890E-04   .344642960507E-04   .366517543474E-04   .389780486034E-04   .414519902661E-04
   .440829499708E-04   .468808930216E-04   .498564171228E-04   .530207925040E-04   .563860045895E-04
   .599647993739E-04   .637707316760E-04   .678182164514E-04   .721225833600E-04   .767001347933E-04
   .815682075797E-04   .867452386034E-04   .922508345820E-04   .981058462673E-04   .104332447350E-03
   .110954218363E-03   .117996235907E-03   .125485167520E-03   .133449372573E-03   .141919009538E-03
   .150926150070E-03   .160504900299E-03   .170691529818E-03   .181524608819E-03   .193045153932E-03
   .205296783279E-03   .218325881349E-03   .232181774304E-03   .246916916374E-03   .262587088042E-03
   .279251606759E-03   .296973550989E-03   .315819998402E-03   .335862279125E-03   .357176244993E-03
   .379842555794E-03   .403946983596E-03   .429580736266E-03   .456840801414E-03   .485830312006E-03
   .516658935044E-03   .549443284715E-03   .584307361574E-03   .621383019362E-03   .660810461193E-03
   .702738766937E-03   .747326453747E-03   .794742071779E-03   .845164837295E-03   .898785305466E-03
   .955806085333E-03   .101644259952E-02   .108092389149E-02   .114949348318E-02   .122241028630E-02
   .129994957030E-02   .138240399076E-02   .147008468172E-02   .156332241581E-02   .166246883649E-02
   .176789776648E-02   .188000659724E-02   .199921776422E-02   .212598031296E-02   .226077156165E-02
   .240409886567E-02   .255650149028E-02   .271855259769E-02   .289086135530E-02   .307407517208E-02
   .326888207053E-02   .347601320195E-02   .369624551323E-02   .393040457364E-02   .417936757070E-02
   .444406648429E-02   .472549144907E-02   .502469431519E-02   .534279241799E-02   .568097256784E-02
   .604049527146E-02   .642269919670E-02   .682900589303E-02   .726092478028E-02   .772005841881E-02
   .820810807423E-02   .872687959023E-02   .927828958331E-02   .986437197329E-02   .104872848634E-01
   .111493177837E-01   .118528993120E-01   .126006050847E-01   .133951662115E-01   .142394781045E-01
   .151366097346E-01   .160898133239E-01   .171025344831E-01   .181784227999E-01   .193213428834E-01
   .205353858646E-01   .218248813531E-01   .231944098416E-01   .246488155495E-01   .261932196892E-01
   .278330341318E-01   .295739754426E-01   .314220792486E-01   .333837148884E-01   .354656002849E-01
   .376748169675E-01   .400188251560E-01   .425054788006E-01   .451430404529E-01   .479401958218E-01
   .509060678417E-01   .540502300536E-01   .573827190665E-01   .609140458326E-01   .646552054280E-01
   .686176849877E-01   .728134693919E-01   .772550442482E-01   .819553956505E-01   .869280061283E-01
   .921868461274E-01   .977463602790E-01   .103621447627E+00   .109827434885E+00   .116380041690E+00
   .123295336709E+00   .130589683330E+00   .138279673542E+00   .146382048481E+00   .154913603963E+00
   .163891079202E+00   .173331026734E+00   .183249661465E+00   .193662686575E+00   .204585093905E+00
   .216030936334E+00   .228013069557E+00   .240542860597E+00   .253629860399E+00   .267281437844E+00
   .281502372676E+00   .296294404981E+00   .311655739218E+00   .327580501200E+00   .344058147068E+00
   .361072824101E+00   .378602684232E+00   .396619152510E+00   .415086154330E+00   .433959307321E+00
   .453185086163E+00   .472699971531E+00   .492429597755E+00   .512287917726E+00   .532176408146E+00
   .551983343325E+00   .571583171476E+00   .590836033678E+00   .609587472453E+00   .627668383838E+00
   .644895274026E+00   .661070888408E+00   .675985287105E+00   .689417445931E+00   .701137464680E+00
   .710909464576E+00   .718495252612E+00   .723658820977E+00   .726171733150E+00   .725819422892E+00
   .722408396233E+00   .715774277727E+00   .705790578807E+00   .692377986389E+00   .675513873057E+00
   .655241616055E+00   .631679182652E+00   .605026297828E+00   .575569363423E+00   .543683156358E+00
   .509828212598E+00   .474542724062E+00   .438427764764E+00   .402124753916E+00   .366284297012E+00
   .331525965080E+00   .298389222229E+00   .267276632420E+00   .238391910135E+00   .211733674988E+00
   .187244705198E+00   .164855993212E+00   .144486517875E+00
 ae wavefunction
  -.415304344296E-05  -.439032636189E-05  -.464028940439E-05  -.490366166687E-05  -.518121220642E-05
  -.547375238681E-05  -.578213835931E-05  -.610727368579E-05  -.645011211208E-05  -.681166050423E-05
  -.719298195126E-05  -.759519905200E-05  -.801949739131E-05  -.846712922075E-05  -.893941735427E-05
  -.943775929396E-05  -.996363159783E-05  -.105185945051E-04  -.111042968358E-04  -.117224811807E-04
  -.123749893973E-04  -.130637684340E-04  -.137908765006E-04  -.145584896049E-04  -.153689084808E-04
  -.162245659289E-04  -.171280345967E-04  -.180820352237E-04  -.190894453806E-04  -.201533087326E-04
  -.212768448591E-04  -.224634596622E-04  -.237167564026E-04  -.250405473985E-04  -.264388664296E-04
  -.279159818894E-04  -.294764107303E-04  -.311249332513E-04  -.328666087791E-04  -.347067922976E-04
  -.366511520834E-04  -.387056884094E-04  -.408767533812E-04  -.431710719766E-04  -.455957643602E-04
  -.481583695527E-04  -.508668705367E-04  -.537297208867E-04  -.567558730170E-04  -.599548081457E-04
  -.633365680797E-04  -.669117889315E-04  -.706917368850E-04  -.746883461369E-04  -.789142591428E-04
  -.833828693109E-04  -.881083662907E-04  -.931057840128E-04  -.983910516495E-04  -.103981047669E-03
  -.109893657175E-03  -.116147832721E-03  -.122763658824E-03  -.129762420386E-03  -.137166675257E-03
  -.145000331209E-03  -.153288727559E-03  -.162058721737E-03  -.171338781081E-03  -.181159080191E-03
  -.191551604149E-03  -.202550257968E-03  -.214190982640E-03  -.226511878165E-03  -.239553333982E-03
  -.253358167233E-03  -.267971769327E-03  -.283442261276E-03  -.299820658347E-03  -.317161044532E-03
  -.335520757450E-03  -.354960584254E-03  -.375544969207E-03  -.397342233580E-03  -.420424808594E-03
  -.444869482154E-03  -.470757660158E-03  -.498175643227E-03  -.527214919709E-03  -.557972475907E-03
  -.590551124479E-03  -.625059852050E-03  -.661614187094E-03  -.700336589236E-03  -.741356861142E-03
  -.784812584266E-03  -.830849579737E-03  -.879622395802E-03  -.931294823219E-03  -.986040440161E-03
  -.104404318818E-02  -.110549798093E-02  -.117061134730E-02  -.123960211097E-02  -.131270210799E-02
  -.139015694470E-02  -.147222679779E-02  -.155918725883E-02  -.165133022548E-02  -.174896484164E-02
  -.185241848915E-02  -.196203783341E-02  -.207818992567E-02  -.220126336460E-02  -.233166952014E-02
  -.246984382237E-02  -.261624711851E-02  -.277136710119E-02  -.293571981113E-02  -.310985121754E-02
  -.329433887965E-02  -.348979369280E-02  -.369686172265E-02  -.391622613104E-02  -.414860919727E-02
  -.439477443836E-02  -.465552883221E-02  -.493172514719E-02  -.522426438213E-02  -.553409832036E-02
  -.586223220152E-02  -.620972751477E-02  -.657770491707E-02  -.696734727984E-02  -.737990286746E-02
  -.781668865056E-02  -.827909375711E-02  -.876858306390E-02  -.928670093062E-02  -.983507507853E-02
  -.104154206151E-01  -.110295442056E-01  -.116793483918E-01  -.123668360581E-01  -.130941150426E-01
  -.138634028929E-01  -.146770317622E-01  -.155374534424E-01  -.164472445291E-01  -.174091117111E-01
  -.184258971767E-01  -.195005841279E-01  -.206363023884E-01  -.218363340953E-01  -.231041194548E-01
  -.244432625467E-01  -.258575371549E-01  -.273508926005E-01  -.289274595509E-01  -.305915557730E-01
  -.323476917990E-01  -.342005764630E-01  -.361551222687E-01  -.382164505402E-01  -.403898963027E-01
  -.426810128367E-01  -.450955758414E-01  -.476395871391E-01  -.503192778433E-01  -.531411109076E-01
  -.561117829670E-01  -.592382253713E-01  -.625276043063E-01  -.659873198876E-01  -.696250041034E-01
  -.734485174747E-01  -.774659442893E-01  -.816855862586E-01  -.861159544343E-01  -.907657592135E-01
  -.956438982474E-01  -.100759442061E+00  -.106121617182E+00  -.111739786557E+00  -.117623427038E+00
  -.123782103705E+00  -.130225440766E+00  -.136963088807E+00  -.144004688106E+00  -.151359827761E+00
  -.159038000351E+00  -.167048551862E+00  -.175400626591E+00  -.184103106756E+00  -.193164546538E+00
  -.202593100293E+00  -.212396444659E+00  -.222581694331E+00  -.233155311269E+00  -.244123007130E+00
  -.255489638751E+00  -.267259096541E+00  -.279434185666E+00  -.292016499973E+00  -.305006288651E+00
  -.318402315675E+00  -.332201712152E+00  -.346399821795E+00  -.360990039782E+00  -.375963645423E+00
  -.391309629117E+00  -.407014514235E+00  -.423062174692E+00  -.439433649136E+00  -.456106952820E+00
  -.473056888442E+00  -.490254857383E+00  -.507668672978E+00  -.525262377608E+00  -.542996065523E+00
  -.560825713365E+00  -.578703020307E+00  -.596575259585E+00  -.614385142904E+00  -.632070698899E+00
  -.649565166561E+00  -.666796904505E+00  -.683689317444E+00  -.700160802200E+00  -.716124717294E+00
  -.731489382124E+00  -.746158113731E+00  -.760029310635E+00  -.772996593770E+00  -.784949013902E+00
  -.795771333027E+00  -.805344384263E+00  -.813545511260E+00  -.820249085255E+00  -.825327096385E+00
  -.828649816104E+00  -.830086528909E+00  -.829506332953E+00  -.826779009766E+00  -.821775962962E+00
  -.814371224794E+00  -.804442528099E+00  -.791872439988E+00  -.776549552450E+00  -.758369724145E+00
  -.737237366608E+00  -.713066767051E+00  -.685783438768E+00  -.655325488769E+00  -.621644990764E+00
  -.584709349980E+00  -.544502644536E+00  -.501026926255E+00  -.454303462005E+00  -.404373894823E+00
  -.351301302590E+00  -.295171130672E+00  -.236091974275E+00  -.174196186086E+00  -.109640285441E+00
  -.426051465605E-01   .267040548723E-01   .980581561070E-01   .171204601874E+00   .245868340576E+00
   .321753048826E+00   .398542717113E+00   .475903629235E+00   .553486746056E+00   .630930437616E+00
   .707863380292E+00   .783907273448E+00   .858678940163E+00   .931791535144E+00   .100285511358E+01
   .107147757323E+01   .113726739201E+01   .119983891266E+01   .125881934136E+01   .131385562207E+01
   .136461991649E+01   .141081364383E+01   .145217065969E+01   .148846007425E+01   .151948890873E+01
   .154510456121E+01   .156519693997E+01   .157970009897E+01   .158859323855E+01   .159190099047E+01
   .158969296355E+01   .158208257272E+01   .156922520510E+01   .155131579528E+01   .152858589084E+01
   .150130029246E+01   .146975335397E+01   .143426502492E+01   .139517671545E+01   .135284705803E+01
   .130764763503E+01   .125995873488E+01   .121016519206E+01   .115865236032E+01   .110580226149E+01
   .105198994661E+01   .997580101337E+00   .942923923385E+00   .888356293250E+00   .834193274555E+00
   .780729923891E+00   .728238408756E+00   .676966404555E+00   .627136179777E+00   .578943896568E+00
   .532559215314E+00   .488125233471E+00   .445758738955E+00   .405550754363E+00   .367567346489E+00
   .331850675258E+00   .298420256946E+00   .267274417314E+00   .238391910135E+00   .211733674988E+00
   .187244705198E+00   .164855993212E+00   .144486517875E+00
 pseudo wavefunction
  -.432535886704E-08  -.459989544102E-08  -.489185723498E-08  -.520235025197E-08  -.553255069458E-08
  -.588370942064E-08  -.625715668165E-08  -.665430716201E-08  -.707666533816E-08  -.752583117769E-08
  -.800350620042E-08  -.851149992396E-08  -.905173671852E-08  -.962626309680E-08  -.102372554665E-07
  -.108870283748E-07  -.115780432767E-07  -.123129178589E-07  -.130944359564E-07  -.139255580980E-07
  -.148094327216E-07  -.157494081005E-07  -.167490450277E-07  -.178121303047E-07  -.189426910865E-07
  -.201450101371E-07  -.214236420536E-07  -.227834305195E-07  -.242295266536E-07  -.257674085234E-07
  -.274029018968E-07  -.291422023112E-07  -.309918985433E-07  -.329589975685E-07  -.350509511044E-07
  -.372756838395E-07  -.396416234529E-07  -.421577325401E-07  -.448335425647E-07  -.476791899653E-07
  -.507054545539E-07  -.539238003517E-07  -.573464190172E-07  -.609862760293E-07  -.648571598038E-07
  -.689737339253E-07  -.733515926962E-07  -.780073202096E-07  -.829585531733E-07  -.882240477203E-07
  -.938237504599E-07  -.997788740391E-07  -.106111977499E-06  -.112847051734E-06  -.120009610370E-06
  -.127626786415E-06  -.135727435046E-06  -.144342242914E-06  -.153503844392E-06  -.163246945194E-06
  -.173608453853E-06  -.184627621532E-06  -.196346190712E-06  -.208808553322E-06  -.222061918898E-06
  -.236156493426E-06  -.251145669523E-06  -.267086228698E-06  -.284038556448E-06  -.302066871008E-06
  -.321239466618E-06  -.341628972225E-06  -.363312626619E-06  -.386372571017E-06  -.410896160226E-06
  -.436976293552E-06  -.464711766717E-06  -.494207646100E-06  -.525575666747E-06  -.558934655630E-06
  -.594410981776E-06  -.632139034964E-06  -.672261734806E-06  -.714931072133E-06  -.760308684752E-06
  -.808566469738E-06  -.859887234589E-06  -.914465389712E-06  -.972507684853E-06  -.103423399228E-05
  -.109987813965E-05  -.116968879576E-05  -.124393041252E-05  -.132288422667E-05  -.140684932509E-05
  -.149614377777E-05  -.159110584262E-05  -.169209524676E-05  -.179949454917E-05  -.191371058976E-05
  -.203517603043E-05  -.216435099398E-05  -.230172480694E-05  -.244781785308E-05  -.260318354452E-05
  -.276841041794E-05  -.294412436382E-05  -.313099099712E-05  -.332971817849E-05  -.354105869534E-05
  -.376581311323E-05  -.400483280799E-05  -.425902319046E-05  -.452934713574E-05  -.481682863006E-05
  -.512255664909E-05  -.544768928235E-05  -.579345811928E-05  -.616117291369E-05  -.655222654408E-05
  -.696810028878E-05  -.741036943572E-05  -.788070924815E-05  -.838090130888E-05  -.891284026694E-05
  -.947854101234E-05  -.100801463060E-04  -.107199348935E-04  -.114003301339E-04  -.121239091757E-04
  -.128934127146E-04  -.137117553708E-04  -.145820367238E-04  -.155075530473E-04  -.164918097889E-04
  -.175385348399E-04  -.186516926482E-04  -.198354992247E-04  -.210944381017E-04  -.224332773034E-04
  -.238570873920E-04  -.253712606573E-04  -.269815315233E-04  -.286939982482E-04  -.305151459991E-04
  -.324518713892E-04  -.345115085701E-04  -.367018569763E-04  -.390312108285E-04  -.415083905041E-04
  -.441427758963E-04  -.469443418837E-04  -.499236960471E-04  -.530921187728E-04  -.564616058953E-04
  -.600449140374E-04  -.638556088195E-04  -.679081161185E-04  -.722177765681E-04  -.768009035055E-04
  -.816748445807E-04  -.868580472595E-04  -.923701284647E-04  -.982319486166E-04  -.104465690347E-03
  -.111094942183E-03  -.118144787509E-03  -.125641899146E-03  -.133614639881E-03  -.142093169347E-03
  -.151109557626E-03  -.160697906006E-03  -.170894475339E-03  -.181737822471E-03  -.193268945247E-03
  -.205531436627E-03  -.218571648472E-03  -.232438865610E-03  -.247185490810E-03  -.262867241341E-03
  -.279543357835E-03  -.297276826202E-03  -.316134613414E-03  -.336187917992E-03  -.357512436117E-03
  -.380188644292E-03  -.404302099592E-03  -.429943758546E-03  -.457210315799E-03  -.486204563732E-03
  -.517035774311E-03  -.549820104496E-03  -.584681026611E-03  -.621749785167E-03  -.661165881699E-03
  -.703077589271E-03  -.747642498377E-03  -.795028096084E-03  -.845412380327E-03  -.898984511381E-03
  -.955945502648E-03  -.101650895296E-02  -.108090182275E-02  -.114936525655E-02  -.122215545433E-02
  -.129954459434E-02  -.138182181033E-02  -.146929422589E-02  -.156228804902E-02  -.166114973002E-02
  -.176624718586E-02  -.187797109444E-02  -.199673626203E-02  -.212298306752E-02  -.225717898692E-02
  -.239982020179E-02  -.255143329528E-02  -.271257703936E-02  -.288384427708E-02  -.306586390328E-02
  -.325930294744E-02  -.346486876208E-02  -.368331131984E-02  -.391542562249E-02  -.416205422424E-02
  -.442408987203E-02  -.470247826432E-02  -.499822092980E-02  -.531237822647E-02  -.564607246068E-02
  -.600049112482E-02  -.637689025099E-02  -.677659787650E-02  -.720101761556E-02  -.765163232925E-02
  -.813000788376E-02  -.863779698419E-02  -.917674306792E-02  -.974868423830E-02  -.103555572149E-01
  -.109994012726E-01  -.116823621347E-01  -.124066957825E-01  -.131747721318E-01  -.139890785238E-01
  -.148522229660E-01  -.157669370484E-01  -.167360784500E-01  -.177626329375E-01  -.188497157413E-01
  -.200005721803E-01  -.212185773858E-01  -.225072349556E-01  -.238701743454E-01  -.253111467784E-01
  -.268340194251E-01  -.284427675741E-01  -.301414644763E-01  -.319342685084E-01  -.338254072565E-01
  -.358191580713E-01  -.379198245975E-01  -.401317087178E-01  -.424590772938E-01  -.449061230159E-01
  -.474769186008E-01  -.501753634999E-01  -.530051221957E-01  -.559695530764E-01  -.590716267875E-01
  -.623138328620E-01  -.656980733342E-01  -.692255419443E-01  -.728965874417E-01  -.767105594058E-01
  -.806656349137E-01  -.847586243160E-01  -.889847543195E-01  -.933374265500E-01  -.978079497612E-01
  -.102385243901E+00  -.107055514332E+00  -.111801894673E+00  -.116604056952E+00  -.121437788107E+00
  -.126274532333E+00  -.131080899378E+00  -.135818139633E+00  -.140441587883E+00  -.144900078740E+00
  -.149135338282E+00  -.153081358166E+00  -.156663760604E+00  -.159799165064E+00  -.162394570441E+00
  -.164346769747E+00  -.165541818117E+00  -.165854579121E+00  -.165148378970E+00  -.163274803170E+00
  -.160073675390E+00  -.155373263668E+00  -.148990764309E+00  -.140733118685E+00  -.130398222215E+00
  -.117776587582E+00  -.102653525067E+00  -.848119010372E-01  -.640355300359E-01  -.401132456369E-01
  -.128436788316E-01   .179592510551E-01   .524601605999E-01   .907954123377E-01   .133065835904E+00
   .179329152672E+00   .229592376320E+00   .283804554101E+00   .341850316194E+00   .403544809697E+00
   .468630703139E+00   .536778047603E+00   .607587858668E+00   .680600322122E+00   .755308504399E+00
   .831178340094E+00   .907675444812E+00   .984298931650E+00   .106062279114E+01   .113643841516E+01
   .121181907091E+01   .128689186917E+01   .136181211116E+01
 ae wavefunction
   .326550037042E-05   .345207399818E-05   .364861789906E-05   .385570535605E-05   .407394107286E-05
   .430396301869E-05   .454644437875E-05   .480209561690E-05   .507166665626E-05   .535594918798E-05
   .565577911095E-05   .597203911615E-05   .630566142006E-05   .665763065869E-05   .702898695076E-05
   .742082914175E-05   .783431823824E-05   .827068104473E-05   .873121401635E-05   .921728733925E-05
   .973034925260E-05   .102719306277E-04   .108436498198E-04   .114472178081E-04   .120844436431E-04
   .127572402184E-04   .134676303882E-04   .142177534506E-04   .150098720189E-04   .158463793056E-04
   .167298068430E-04   .176628326683E-04   .186482900000E-04   .196891764373E-04   .207886637132E-04
   .219501080359E-04   .231770610539E-04   .244732814836E-04   .258427474388E-04   .272896695070E-04
   .288185046154E-04   .304339707380E-04   .321410624927E-04   .339450676841E-04   .358515848499E-04
   .378665418718E-04   .399962157156E-04   .422472533707E-04   .446266940611E-04   .471419928059E-04
   .498010454114E-04   .526122149825E-04   .555843600457E-04   .587268643811E-04   .620496686685E-04
   .655633040567E-04   .692789277740E-04   .732083609012E-04   .773641284418E-04   .817595018246E-04
   .864085439881E-04   .913261572014E-04   .965281337875E-04   .102031209922E-03   .107853122695E-03
   .114012670627E-03   .120529777855E-03   .127425562193E-03   .134722407321E-03   .142444039319E-03
   .150615607840E-03   .159263772164E-03   .168416792442E-03   .178104626441E-03   .188359032093E-03
   .199213676213E-03   .210704249740E-03   .222868589881E-03   .235746809565E-03   .249381434638E-03
   .263817549238E-03   .279102949844E-03   .295288308485E-03   .312427345644E-03   .330577013417E-03
   .349797689515E-03   .370153382731E-03   .391711950525E-03   .414545329408E-03   .438729778872E-03
   .464346139604E-03   .491480106804E-03   .520222519450E-03   .550669666391E-03   .582923610213E-03
   .617092529854E-03   .653291082993E-03   .691640789309E-03   .732270435727E-03   .775316504861E-03
   .820923627878E-03   .869245063108E-03   .920443201759E-03   .974690102168E-03   .103216805407E-02
   .109307017450E-02   .115760103682E-02   .122597733482E-02   .129842858333E-02   .137519785753E-02
   .145654257261E-02   .154273530592E-02   .163406466361E-02   .173083619398E-02   .183337334964E-02
   .194201850094E-02   .205713400285E-02   .217910331795E-02   .230833219785E-02   .244524992574E-02
   .259031062277E-02   .274399462077E-02   .290680990441E-02   .307929362524E-02   .326201369090E-02
   .345557043197E-02   .366059834985E-02   .387776794818E-02   .410778765114E-02   .435140581128E-02
   .460941280998E-02   .488264325334E-02   .517197826627E-02   .547834788757E-02   .580273356852E-02
   .614617077745E-02   .650975171254E-02   .689462812492E-02   .730201425382E-02   .773318987527E-02
   .818950346543E-02   .867237547937E-02   .918330174540E-02   .972385697482E-02   .102956983861E-01
   .109005694418E-01   .115403036964E-01   .122168287509E-01   .129321703111E-01   .136884563431E-01
   .144879213214E-01   .153329105596E-01   .162258846159E-01   .171694237629E-01   .181662325077E-01
   .192191441497E-01   .203311253570E-01   .215052807461E-01   .227448574392E-01   .240532495792E-01
   .254340027721E-01   .268908184290E-01   .284275579720E-01   .300482468687E-01   .317570784527E-01
   .335584174848E-01   .354568034056E-01   .374569532235E-01   .395637639792E-01   .417823147203E-01
   .441178679154E-01   .465758702304E-01   .491619525819E-01   .518819293799E-01   .547417968591E-01
   .577477303966E-01   .609060807027E-01   .642233687632E-01   .677062794079E-01   .713616533661E-01
   .751964776660E-01   .792178742238E-01   .834330864618E-01   .878494637852E-01   .924744437397E-01
   .973155316644E-01   .102380277646E+00   .107676250574E+00   .113211009095E+00   .118992069244E+00
   .125026868550E+00   .131322726391E+00   .137886800366E+00   .144726038495E+00   .151847126994E+00
   .159256433436E+00   .166959945083E+00   .174963202196E+00   .183271226142E+00   .191888442128E+00
   .200818596430E+00   .210064667992E+00   .219628774312E+00   .229512071557E+00   .239714648920E+00
   .250235417232E+00   .261071991943E+00   .272220570623E+00   .283675805210E+00   .295430669309E+00
   .307476320950E+00   .319801961273E+00   .332394689773E+00   .345239356813E+00   .358318414258E+00
   .371611765243E+00   .385096614205E+00   .398747318478E+00   .412535242856E+00   .426428618657E+00
   .440392408830E+00   .454388180660E+00   .468373987460E+00   .482304260472E+00   .496129711925E+00
   .509797250004E+00   .523249906493E+00   .536426778180E+00   .549262983974E+00   .561689640934E+00
   .573633864053E+00   .585018796142E+00   .595763675380E+00   .605783948486E+00   .614991437011E+00
   .623294562732E+00   .630598635818E+00   .636806206722E+00   .641817480452E+00   .645530790755E+00
   .647843131895E+00   .648650746821E+00   .647849771588E+00   .645336936396E+00   .641010323363E+00
   .634770180344E+00   .626519789072E+00   .616166384950E+00   .603622124932E+00   .588805099147E+00
   .571640381146E+00   .552061110770E+00   .530009602695E+00   .505438472581E+00   .478311771543E+00
   .448606118289E+00   .416311816854E+00   .381433946329E+00   .343993407492E+00   .304027909754E+00
   .261592880525E+00   .216762278027E+00   .169629287889E+00   .120306883700E+00   .689282320738E-01
   .156469237328E-01  -.393629866804E-01  -.959071483747E-01  -.153771306191E+00  -.212721934844E+00
  -.272507138342E+00  -.332857842103E+00  -.393489304749E+00  -.454102958160E+00  -.514388530249E+00
  -.574026302989E+00  -.632689230357E+00  -.690044574252E+00  -.745754850217E+00  -.799478302796E+00
  -.850869729989E+00  -.899582784769E+00  -.945274326851E+00  -.987610134151E+00  -.102627050506E+01
  -.106095475678E+01  -.109138460017E+01  -.111730685683E+01  -.113849591162E+01  -.115475605037E+01
  -.116592365227E+01  -.117186911920E+01  -.117249840815E+01  -.116775405761E+01  -.115761564443E+01
  -.114209965312E+01  -.112125877580E+01  -.109518068518E+01  -.106398633634E+01  -.102782786003E+01
  -.986886111843E+00  -.941367941887E+00  -.891503247083E+00  -.837541864981E+00  -.779750363815E+00
  -.718408778345E+00  -.653807335952E+00  -.586243211627E+00  -.516017345701E+00  -.443431353449E+00
  -.368784551652E+00  -.292371124370E+00  -.214477447477E+00  -.135379588339E+00  -.553410014518E-01
   .253895819347E-01   .106580040188E+00   .188016494307E+00   .269504761240E+00   .350871612034E+00
   .431965848573E+00   .512659211827E+00   .592847135615E+00   .672449365763E+00   .751410459177E+00
   .829700177600E+00   .907313792964E+00   .984272330514E+00   .106062279114E+01   .113643841516E+01
   .121181907091E+01   .128689186917E+01   .136181211116E+01
 pseudo wavefunction
   .532130737371E-12   .583588959248E-12   .640023305236E-12   .701914977566E-12   .769791711786E-12
   .844232276646E-12   .925871409112E-12   .101540522662E-11   .111359716272E-11   .122128447664E-11
   .133938539247E-11   .146890692859E-11   .161095348427E-11   .176673625665E-11   .193758356832E-11
   .212495219360E-11   .233043978011E-11   .255579847152E-11   .280294984769E-11   .307400130951E-11
   .337126404817E-11   .369727275218E-11   .405480722004E-11   .444691606291E-11   .487694269939E-11
   .534855386404E-11   .586577087279E-11   .643300391168E-11   .705508964149E-11   .773733243881E-11
   .848554962514E-11   .930612106983E-11   .102060435897E-10   .111929906091E-10   .122753775896E-10
   .134624337864E-10   .147642809441E-10   .161920196021E-10   .177578237468E-10   .194750446155E-10
   .213583245399E-10   .234237217972E-10   .256888475354E-10   .281730159393E-10   .308974089178E-10
   .338852567170E-10   .371620359986E-10   .407556870736E-10   .446968521425E-10   .490191365733E-10
   .537593954472E-10   .589580478120E-10   .646594213260E-10   .709121302291E-10   .777694898640E-10
   .852899712834E-10   .935376998183E-10   .102583001859E-09   .112503004509E-09   .123382293233E-09
   .135313633091E-09   .148398759726E-09   .162749246837E-09   .178487457542E-09   .195747587736E-09
   .214676810342E-09   .235436530224E-09   .258203760443E-09   .283172631596E-09   .310556047128E-09
   .340587498697E-09   .373523057099E-09   .409643555719E-09   .449256985120E-09   .492701119201E-09
   .540346395304E-09   .592599072834E-09   .649904697324E-09   .712751899481E-09   .781676561607E-09
   .857266386922E-09   .940165910744E-09   .103108199626E-08   .113078986176E-08   .124013969067E-08
   .136006388088E-08   .149158499496E-08   .163582447931E-08   .179401222636E-08   .196749706150E-08
   .215775824410E-08   .236641808073E-08   .259525575800E-08   .284622251315E-08   .312145827160E-08
   .342330989341E-08   .375435118415E-08   .411740484085E-08   .451556652015E-08   .495223123388E-08
   .543112229710E-08   .595632307537E-08   .653231180211E-08   .716399976270E-08   .785677317112E-08
   .861653909591E-08   .944977582733E-08   .103635881149E-07   .113657677464E-07   .124648599851E-07
   .136702364309E-07   .149921749275E-07   .164419471965E-07   .180319149456E-07   .197756352701E-07
   .216879762465E-07   .237852437046E-07   .260853202572E-07   .286078177740E-07   .313742445997E-07
   .344081889410E-07   .377355199868E-07   .413846084762E-07   .453865685942E-07   .497755232576E-07
   .545888950534E-07   .598677253083E-07   .656570240118E-07   .720061535733E-07   .789692496869E-07
   .866056828903E-07   .949805647527E-07   .104165303007E-06   .114238210358E-06   .125285172156E-06
   .137400378627E-06   .150687127904E-06   .165258706696E-06   .181239356108E-06   .198765330846E-06
   .217986060827E-06   .239065425093E-06   .262183148901E-06   .287536335873E-06   .315341148282E-06
   .345834649782E-06   .379276826285E-06   .415952802208E-06   .456175270975E-06   .500287160473E-06
   .548664556178E-06   .601719906856E-06   .659905540138E-06   .723717517926E-06   .793699864454E-06
   .870449203038E-06   .954619840974E-06   .104692934592E-05   .114816466119E-05   .125918881213E-05
   .138094826052E-05   .151448096978E-05   .166092524945E-05   .182152945441E-05   .199766262119E-05
   .219082613202E-05   .240266650575E-05   .263498942452E-05   .288977511547E-05   .316919521817E-05
   .347563128139E-05   .381169504631E-05   .418025068850E-05   .458443920787E-05   .502770517358E-05
   .551382605126E-05   .604694436132E-05   .663160294162E-05   .727278361360E-05   .797594957989E-05
   .874709191313E-05   .959278053002E-05   .105202200827E-04   .115373112411E-04   .126527178848E-04
   .138759407737E-04   .152173983208E-04   .166885151495E-04   .183018191851E-04   .200710480995E-04
   .220112660086E-04   .241389914067E-04   .264723374170E-04   .290311655386E-04   .318372541866E-04
   .349144834412E-04   .382890375593E-04   .419896269494E-04   .460477314717E-04   .504978671021E-04
   .553778781930E-04   .607292577733E-04   .665974985637E-04   .730324776330E-04   .800888778997E-04
   .878266499827E-04   .963115182341E-04   .105615535150E-03   .115817688739E-03   .127004567873E-03
   .139271091083E-03   .152721304811E-03   .167469257642E-03   .183639957684E-03   .201370420885E-03
   .220810818827E-03   .242125735293E-03   .265495541759E-03   .291117902882E-03   .319209424064E-03
   .350007454234E-03   .383772058207E-03   .420788174200E-03   .461367973515E-03   .505853440859E-03
   .554619195399E-03   .608075574372E-03   .666672002964E-03   .730900676167E-03   .801300580500E-03
   .878461885801E-03   .963030739774E-03   .105571450065E-02   .115728744609E-02   .126859699961E-02
   .139057051878E-02   .152422269301E-02   .167066360224E-02   .183110749139E-02   .200688231964E-02
   .219944014734E-02   .241036842756E-02   .264140227368E-02   .289443777849E-02   .317154646473E-02
   .347499095116E-02   .380724192242E-02   .417099649460E-02   .456919807233E-02   .500505779584E-02
   .548207767908E-02   .600407554123E-02   .657521183458E-02   .720001847052E-02   .788342974270E-02
   .863081544150E-02   .944801624631E-02   .103413814717E-01   .113178092289E-01   .123847890445E-01
   .135504469556E-01   .148235930674E-01   .162137715235E-01   .177313127914E-01   .193873881078E-01
   .211940658628E-01   .231643696166E-01   .253123373476E-01   .276530814153E-01   .302028485860E-01
   .329790793144E-01   .360004652887E-01   .392870040407E-01   .428600491781E-01   .467423545236E-01
   .509581101325E-01   .555329678109E-01   .604940533623E-01   .658699623557E-01   .716907357267E-01
   .779878109994E-01   .847939443514E-01   .921430981371E-01   .100070287856E+00   .108611381892E+00
   .117802846704E+00   .127681429489E+00   .138283769765E+00   .149645930807E+00   .161802841458E+00
   .174787638699E+00   .188630901364E+00   .203359765854E+00   .218996915541E+00   .235559437000E+00
   .253057538386E+00   .271493128284E+00   .290858257492E+00   .311133431533E+00   .332285808498E+00
   .354267305310E+00   .377012645768E+00   .400437396067E+00   .424436047836E+00   .448880225193E+00
   .473617110680E+00   .498468204830E+00   .523228554987E+00   .547666609753E+00   .571524874772E+00
   .594521561399E+00   .616353429614E+00   .636700026959E+00   .655229512189E+00   .671606220816E+00
   .685500074200E+00   .696597848160E+00   .704616195033E+00   .709316148978E+00   .710518633960E+00
   .708120235669E+00   .702108196066E+00   .692573251963E+00   .679718586782E+00   .663862829116E+00
   .645434760298E+00   .624957251248E+00   .603018020672E+00   .580225195128E+00   .557146472407E+00
   .534232062253E+00   .511723727271E+00   .489649347251E+00
 ae wavefunction
   .290743485819E-09   .317143897068E-09   .345696513897E-09   .376596061706E-09   .410053503810E-09
   .446297517345E-09   .485576095754E-09   .528158289436E-09   .574336097020E-09   .624426521812E-09
   .678773807256E-09   .737751869207E-09   .801766941832E-09   .871260457267E-09   .946712179993E-09
   .102864361949E-08   .111762174616E-08   .121426303817E-08   .131923788978E-08   .143327541376E-08
   .155716867362E-08   .169178038538E-08   .183804913156E-08   .199699613382E-08   .216973263581E-08
   .235746795173E-08   .256151824163E-08   .278331608008E-08   .302442089063E-08   .328653032604E-08
   .357149268056E-08   .388132042945E-08   .421820499937E-08   .458453288277E-08   .498290322035E-08
   .541614698692E-08   .588734792837E-08   .639986541203E-08   .695735936673E-08   .756381750643E-08
   .822358504830E-08   .894139715713E-08   .972241436815E-08   .105722612654E-07   .114970687172E-07
   .125035200004E-07   .135989011741E-07   .147911560987E-07   .160889465331E-07   .175017177831E-07
   .190397704183E-07   .207143386243E-07   .225376758091E-07   .245231481412E-07   .266853367605E-07
   .290401494739E-07   .316049428207E-07   .343986554795E-07   .374419540785E-07   .407573925695E-07
   .443695864372E-07   .483054031335E-07   .525941702583E-07   .572679031501E-07   .623615537075E-07
   .679132824331E-07   .739647558784E-07   .805614718751E-07   .877531151595E-07   .955939462441E-07
   .104143226658E-06   .113465683974E-06   .123632020348E-06   .134719468679E-06   .146812400837E-06
   .160002992860E-06   .174391952486E-06   .190089314837E-06   .207215312697E-06   .225901328354E-06
   .246290934683E-06   .268541033841E-06   .292823102738E-06   .319324555301E-06   .348250232482E-06
   .379824032003E-06   .414290690940E-06   .451917735459E-06   .492997613377E-06   .537850026679E-06
   .586824482702E-06   .640303084465E-06   .698703582493E-06   .762482712633E-06   .832139846545E-06
   .908220984106E-06   .991323119623E-06   .108209901678E-05   .118126243036E-05   .128959381644E-05
   .140794657652E-05   .153725388526E-05   .167853615607E-05   .183290920390E-05   .200159316982E-05
   .218592227816E-05   .238735550324E-05   .260748823000E-05   .284806500036E-05   .311099344562E-05
   .339835951445E-05   .371244411562E-05   .405574130608E-05   .443097816617E-05   .484113651706E-05
   .528947664929E-05   .577956324666E-05   .631529370613E-05   .690092907261E-05   .754112782698E-05
   .824098278699E-05   .900606140408E-05   .984244976391E-05   .107568006262E-04   .117563858685E-04
   .128491537319E-04   .140437913000E-04   .153497926816E-04   .167775334086E-04   .183383516044E-04
   .200446365268E-04   .219099251426E-04   .239490074451E-04   .261780412903E-04   .286146775910E-04
   .312781967811E-04   .341896575397E-04   .373720588469E-04   .408505165352E-04   .446524555957E-04
   .488078196053E-04   .533492987520E-04   .583125780574E-04   .637366075292E-04   .696638961115E-04
   .761408314579E-04   .832180277112E-04   .909507036473E-04   .993990937307E-04   .108628894825E-03
   .118711751517E-03   .129725783243E-03   .141756156651E-03   .154895706876E-03   .169245611725E-03
   .184916122999E-03   .202027359557E-03   .220710167019E-03   .241107049363E-03   .263373178060E-03
   .287677484765E-03   .314203844005E-03   .343152352743E-03   .374740714148E-03   .409205733387E-03
   .446804933753E-03   .487818301955E-03   .532550171967E-03   .581331257351E-03   .634520842600E-03
   .692509144588E-03   .755719855875E-03   .824612882200E-03   .899687287136E-03   .981484457526E-03
   .107059150392E-02   .116764491093E-02   .127333445284E-02   .138840739083E-02   .151367296803E-02
   .165000722004E-02   .179835811811E-02   .195975106338E-02   .213529475035E-02   .232618741831E-02
   .253372350955E-02   .275930075293E-02   .300442769177E-02   .327073167412E-02   .355996732338E-02
   .387402550635E-02   .421494281475E-02   .458491157517E-02   .498629040056E-02   .542161529468E-02
   .589361131832E-02   .640520482362E-02   .695953625921E-02   .755997354550E-02   .821012601470E-02
   .891385890548E-02   .967530839642E-02   .104988971560E-01   .113893503798E-01   .123517122780E-01
   .133913629666E-01   .145140357074E-01   .157258344298E-01   .170332514579E-01   .184431853516E-01
   .199629587596E-01   .216003361669E-01   .233635414050E-01   .252612747781E-01   .273027296432E-01
   .294976082666E-01   .318561367616E-01   .343890788983E-01   .371077485559E-01   .400240205661E-01
   .431503396707E-01   .464997272749E-01   .500857856277E-01   .539226989877E-01   .580252312402E-01
   .624087193290E-01   .670890617600E-01   .720827013619E-01   .774066014717E-01   .830782147809E-01
   .891154442440E-01   .955365956824E-01   .102360321993E+00   .109605559121E+00   .117291454119E+00
   .125437285657E+00   .134062377145E+00   .143186002351E+00   .152827282935E+00   .163005077066E+00
   .173737858217E+00   .185043583407E+00   .196939550508E+00   .209442244520E+00   .222567172946E+00
   .236328690508E+00   .250739813497E+00   .265812024137E+00   .281555065455E+00   .297976727368E+00
   .315082624926E+00   .332875969998E+00   .351357338011E+00   .370524431759E+00   .390371844702E+00
   .410890826577E+00   .432069054598E+00   .453890413872E+00   .476334791012E+00   .499377885186E+00
   .522991040910E+00   .547141106879E+00   .571790324880E+00   .596896252515E+00   .622411723141E+00
   .648284846420E+00   .674459053632E+00   .700873193916E+00   .727461691493E+00   .754154779677E+00
   .780878833872E+00   .807556828724E+00   .834108935642E+00   .860453241997E+00   .886506498342E+00
   .912184686644E+00   .937403096565E+00   .962075607669E+00   .986113129009E+00   .100942167305E+01
   .103190111914E+01   .105344583503E+01   .107394748658E+01   .109329897818E+01   .111139787717E+01
   .112814845292E+01   .114346256216E+01   .115726003097E+01   .116946900803E+01   .118002646526E+01
   .118887883071E+01   .119598265524E+01   .120130520305E+01   .120482487873E+01   .120653144211E+01
   .120642599701E+01   .120452076569E+01   .120083867497E+01   .119541278593E+01   .118828559996E+01
   .117950827172E+01   .116913975771E+01   .115724592526E+01   .114389864413E+01   .112917487960E+01
   .111315580232E+01   .109592592756E+01   .107757229220E+01   .105818367577E+01   .103784986853E+01
   .101666098759E+01   .994706840706E+00   .972076336857E+00   .948856942356E+00   .925134183565E+00
   .900991194335E+00   .876508243864E+00   .851762198539E+00   .826826466725E+00   .801770802990E+00
   .776661134097E+00   .751559437481E+00   .726523663051E+00   .701607692403E+00   .676861325222E+00
   .652330285754E+00   .628056245620E+00   .604076865344E+00   .580425862344E+00   .557133116999E+00
   .534224828349E+00   .511723727271E+00   .489649347251E+00
 pseudo wavefunction
  -.115024817686E-12  -.126147972514E-12  -.138346761064E-12  -.151725199501E-12  -.166397362583E-12
  -.182488356349E-12  -.200135384869E-12  -.219488920152E-12  -.240713985181E-12  -.263991561027E-12
  -.289520130034E-12  -.317517368226E-12  -.348222001378E-12  -.381895840580E-12  -.418826014631E-12
  -.459327418321E-12  -.503745397463E-12  -.552458693572E-12  -.605882673307E-12  -.664472870201E-12
  -.728728868887E-12  -.799198564935E-12  -.876482836627E-12  -.961240668506E-12  -.105419477037E-11
  -.115613773966E-11  -.126793881972E-11  -.139055131167E-11  -.152502070293E-11  -.167249358188E-11
  -.183422741450E-11  -.201160126653E-11  -.220612756238E-11  -.241946498124E-11  -.265343260025E-11
  -.291002540528E-11  -.319143130175E-11  -.350004977033E-11  -.383851232675E-11  -.420970496008E-11
  -.461679274090E-11  -.506324680901E-11  -.555287397107E-11  -.608984916029E-11  -.667875103504E-11
  -.732460101997E-11  -.803290612249E-11  -.880970588962E-11  -.966162390577E-11  -.105959242704E-10
  -.116205735372E-10  -.127443086428E-10  -.139767114049E-10  -.153282902233E-10  -.168105696831E-10
  -.184361888218E-10  -.202190088987E-10  -.221742315872E-10  -.243185285949E-10  -.266701838194E-10
  -.292492492504E-10  -.320777159478E-10  -.351797015540E-10  -.385816559385E-10  -.423125867296E-10
  -.464043066543E-10  -.508917047976E-10  -.558130440921E-10  -.612102875766E-10  -.671294562027E-10
  -.736210212441E-10  -.807403346510E-10  -.885481010212E-10  -.971108952116E-10  -.106501730004E-09
  -.116800678662E-09  -.128095557700E-09  -.140482675660E-09  -.154067654316E-09  -.168966329272E-09
  -.185305737667E-09  -.203225201373E-09  -.222877514961E-09  -.244430248524E-09  -.268067176501E-09
  -.293989844664E-09  -.322419288632E-09  -.353597918571E-09  -.387791586146E-09  -.425291851348E-09
  -.466418468530E-09  -.511522112835E-09  -.560987370284E-09  -.615236016997E-09  -.674730615526E-09
  -.739978458947E-09  -.811535896356E-09  -.890013076630E-09  -.976079150923E-09  -.107046797824E-08
  -.117398438272E-08  -.128751101605E-08  -.141201588341E-08  -.154856059719E-08  -.169830942887E-08
  -.186253923618E-08  -.204265035018E-08  -.224017851518E-08  -.245680798315E-08  -.269438587439E-08
  -.295493792683E-08  -.324068576823E-08  -.355406585863E-08  -.389775026436E-08  -.427466944097E-08
  -.468803721905E-08  -.514137820620E-08  -.563855783857E-08  -.618381533829E-08  -.678179985765E-08
  -.743761011835E-08  -.815683788344E-08  -.894561563284E-08  -.981066884872E-08  -.107593733564E-07
  -.117998182097E-07  -.129408746568E-07  -.141922717740E-07  -.155646794131E-07  -.170697991684E-07
  -.187204641394E-07  -.205307483385E-07  -.225160866779E-07  -.246934065569E-07  -.270812721711E-07
  -.297000427748E-07  -.325720462432E-07  -.357217694156E-07  -.391760668399E-07  -.429643896985E-07
  -.471190368653E-07  -.516754302330E-07  -.566724166578E-07  -.621525990919E-07  -.681626997262E-07
  -.747539582371E-07  -.819825685281E-07  -.899101576875E-07  -.986043112420E-07  -.108139149178E-06
  -.118595957636E-06  -.130063881660E-06  -.142640684899E-06  -.156433582720E-06  -.171560155842E-06
  -.188149352256E-06  -.206342585953E-06  -.226294941825E-06  -.248176496985E-06  -.272173769741E-06
  -.298491308559E-06  -.327353434527E-06  -.359006152135E-06  -.393719244620E-06  -.431788571691E-06
  -.473538589157E-06  -.519325111873E-06  -.569538343480E-06  -.624606198666E-06  -.684997946162E-06
  -.751228203410E-06  -.823861316786E-06  -.903516164566E-06  -.990871423355E-06  -.108667134264E-05
  -.119173207641E-05  -.130694862551E-05  -.143330244947E-05  -.157186981235E-05  -.172383093308E-05
  -.189048001783E-05  -.207323625911E-05  -.227365589463E-05  -.249344542759E-05  -.273447612010E-05
  -.299879988193E-05  -.328866668840E-05  -.360654367409E-05  -.395513606315E-05  -.433741011199E-05
  -.475661825708E-05  -.521632667896E-05  -.572044551339E-05  -.627326196261E-05  -.687947658362E-05
  -.754424305661E-05  -.827321176515E-05  -.907257755121E-05  -.994913204215E-05  -.109103209842E-04
  -.119643070573E-04  -.131200386919E-04  -.143873254547E-04  -.157769206255E-04  -.173006116437E-04
  -.189713191662E-04  -.208032055473E-04  -.228117936253E-04  -.250140967825E-04  -.274287613336E-04
  -.300762223919E-04  -.329788744710E-04  -.361612581885E-04  -.396502645652E-04  -.434753585441E-04
  -.476688235002E-04  -.522660286667E-04  -.573057215736E-04  -.628303477782E-04  -.688864003618E-04
  -.755248018823E-04  -.828013216993E-04  -.907770318344E-04  -.995188047931E-04  -.109099857056E-03
  -.119600342251E-03  -.131107998331E-03  -.143718853439E-03  -.157537995485E-03  -.172680410852E-03
  -.189271898050E-03  -.207450062557E-03  -.227365399519E-03  -.249182471450E-03  -.273081188516E-03
  -.299258199503E-03  -.327928402002E-03  -.359326580881E-03  -.393709184535E-03  -.431356248901E-03
  -.472573479626E-03  -.517694503164E-03  -.567083297909E-03  -.621136816689E-03  -.680287812094E-03
  -.745007876110E-03  -.815810705319E-03  -.893255602580E-03  -.977951225406E-03  -.107055959029E-02
  -.117180034084E-02  -.128245528581E-02  -.140337321050E-02  -.153547496226E-02  -.167975880643E-02
  -.183730604491E-02  -.200928688277E-02  -.219696652183E-02  -.240171145092E-02  -.262499589203E-02
  -.286840834930E-02  -.313365819231E-02  -.342258218807E-02  -.373715087498E-02  -.407947464775E-02
  -.445180939425E-02  -.485656149206E-02  -.529629193474E-02  -.577371931430E-02  -.629172133609E-02
  -.685333448561E-02  -.746175140207E-02  -.812031544059E-02  -.883251182304E-02  -.960195468639E-02
  -.104323692360E-01  -.113275681005E-01  -.122914208620E-01  -.133278156070E-01  -.144406111995E-01
  -.156335788330E-01  -.169103312636E-01  -.182742379703E-01  -.197283243365E-01  -.212751527996E-01
  -.229166837848E-01  -.246541141334E-01  -.264876906654E-01  -.284164964990E-01  -.304382077973E-01
  -.325488187558E-01  -.347423328977E-01  -.370104191424E-01  -.393420316919E-01  -.417229935617E-01
  -.441355446255E-01  -.465578563703E-01  -.489635172149E-01  -.513209942727E-01  -.535930798516E-01
  -.557363338093E-01  -.577005361042E-01  -.594281674639E-01  -.608539399648E-01  -.619044033251E-01
  -.624976566740E-01  -.625431991573E-01  -.619419555915E-01  -.605865149428E-01  -.583616190453E-01
  -.551449358758E-01  -.508081449632E-01  -.452183511122E-01  -.382398255350E-01  -.297360497715E-01
  -.195720067557E-01  -.761662489501E-02   .625476423899E-02   .221581440620E-01   .401989474129E-01
   .604708933112E-01   .830558427613E-01   .108024992762E+00   .135441684220E+00   .165365988074E+00
   .197861028819E+00   .233000678054E+00   .270877776313E+00   .311611400169E+00   .355350880102E+00
   .402273317153E+00   .452572056849E+00   .506475668526E+00
 ae wavefunction
  -.793425873260E-10  -.865471479238E-10  -.943390360067E-10  -.102771391331E-09  -.111901784912E-09
  -.121792621793E-09  -.132511578357E-09  -.144132077341E-09  -.156733803962E-09  -.170403267110E-09
  -.185234409396E-09  -.201329270910E-09  -.218798711279E-09  -.237763195512E-09  -.258353649360E-09
  -.280712390615E-09  -.304994143172E-09  -.331367141393E-09  -.360014333132E-09  -.391134690282E-09
  -.424944636644E-09  -.461679603910E-09  -.501595727438E-09  -.544971694479E-09  -.592110758930E-09
  -.643342937762E-09  -.699027405748E-09  -.759555106735E-09  -.825351601160E-09  -.896880171670E-09
  -.974645210393E-09  -.105919591381E-08  -.115113031357E-08  -.125109967399E-08  -.135981329030E-08
  -.147804372437E-08  -.160663251831E-08  -.174649643029E-08  -.189863424056E-08  -.206413418069E-08
  -.224418204351E-08  -.244007003710E-08  -.265320645152E-08  -.288512621399E-08  -.313750241483E-08
  -.341215889459E-08  -.371108399080E-08  -.403644555254E-08  -.439060734073E-08  -.477614694328E-08
  -.519587534649E-08  -.565285831697E-08  -.615043976336E-08  -.669226726252E-08  -.728231995262E-08
  -.792493901427E-08  -.862486098190E-08  -.938725414994E-08  -.102177583640E-07  -.111225285133E-07
  -.121082820719E-07  -.131823510676E-07  -.143527388935E-07  -.156281824168E-07  -.170182198814E-07
  -.185332651474E-07  -.201846888631E-07  -.219849072189E-07  -.239474789966E-07  -.260872116906E-07
  -.284202775546E-07  -.309643405053E-07  -.337386949024E-07  -.367644173208E-07  -.400645325344E-07
  -.436641950472E-07  -.475908876317E-07  -.518746384701E-07  -.565482586491E-07  -.616476019138E-07
  -.672118487760E-07  -.732838172594E-07  -.799103027837E-07  -.871424499212E-07  -.950361590146E-07
  -.103652530929E-06  -.113058353508E-06  -.123326633657E-06  -.134537179300E-06  -.146777235924E-06
  -.160142182782E-06  -.174736294361E-06  -.190673573217E-06  -.208078660848E-06  -.227087833900E-06
  -.247850093671E-06  -.270528357641E-06  -.295300762527E-06  -.322362089272E-06  -.351925321330E-06
  -.384223348660E-06  -.419510830983E-06  -.458066235113E-06  -.500194062537E-06  -.546227284892E-06
  -.596530006640E-06  -.651500375966E-06  -.711573766904E-06  -.777226257754E-06  -.848978433161E-06
  -.927399539739E-06  -.101311202780E-05  -.110679651477E-05  -.120919720899E-05  -.132112783633E-05
  -.144347811553E-05  -.157722083265E-05  -.172341956943E-05  -.188323714515E-05  -.205794483718E-05
  -.224893245095E-05  -.245771931669E-05  -.268596629680E-05  -.293548889557E-05  -.320827157073E-05
  -.350648335520E-05  -.383249490714E-05  -.418889711642E-05  -.457852140704E-05  -.500446188727E-05
  -.547009951214E-05  -.597912843751E-05  -.653558476023E-05  -.714387785553E-05  -.780882454104E-05
  -.853568631627E-05  -.933020994738E-05  -.101986716901E-04  -.111479254681E-04  -.121854553504E-04
  -.133194327011E-04  -.145587784031E-04  -.159132305948E-04  -.173934183887E-04  -.190109420857E-04
  -.207784604344E-04  -.227097855329E-04  -.248199860161E-04  -.271254992228E-04  -.296442530920E-04
  -.323957985956E-04  -.354014535762E-04  -.386844589277E-04  -.422701481236E-04  -.461861311778E-04
  -.504624941989E-04  -.551320157878E-04  -.602304016163E-04  -.657965386221E-04  -.718727703574E-04
  -.785051951327E-04  -.857439887140E-04  -.936437534481E-04  -.102263895816E-03  -.111669034543E-03
  -.121929441540E-03  -.133121518071E-03  -.145328308720E-03  -.158640055856E-03  -.173154797466E-03
  -.188979011387E-03  -.206228309132E-03  -.225028182677E-03  -.245514807736E-03  -.267835907242E-03
  -.292151678903E-03  -.318635790890E-03  -.347476449864E-03  -.378877545726E-03  -.413059877605E-03
  -.450262465761E-03  -.490743954206E-03  -.534784108930E-03  -.582685416752E-03  -.634774789838E-03
  -.691405380995E-03  -.752958514826E-03  -.819845739801E-03  -.892511006202E-03  -.971432974765E-03
  -.105712746062E-02  -.115015001685E-02  -.125109866171E-02  -.136061675292E-02  -.147939601211E-02
  -.160817970176E-02  -.174776595612E-02  -.189901126681E-02  -.206283412270E-02  -.224021880246E-02
  -.243221931678E-02  -.263996349572E-02  -.286465721484E-02  -.310758875184E-02  -.337013326325E-02
  -.365375736811E-02  -.396002382319E-02  -.429059627106E-02  -.464724403941E-02  -.503184696634E-02
  -.544640022279E-02  -.589301909952E-02  -.637394372157E-02  -.689154364948E-02  -.744832232159E-02
  -.804692128790E-02  -.869012418099E-02  -.938086036513E-02  -.101222081993E-01  -.109173978436E-01
  -.117698135315E-01  -.126829952184E-01  -.136606395034E-01  -.147065997006E-01  -.158248849119E-01
  -.170196579228E-01  -.182952317151E-01  -.196560643713E-01  -.211067521363E-01  -.226520204261E-01
  -.242967126117E-01  -.260457764751E-01  -.279042483036E-01  -.298772346602E-01  -.319698919109E-01
  -.341874035956E-01  -.365349556857E-01  -.390177096769E-01  -.416407733564E-01  -.444091690028E-01
  -.473277987596E-01  -.504014069732E-01  -.536345393756E-01  -.570314990740E-01  -.605962993673E-01
  -.643326134413E-01  -.682437210063E-01  -.723324519661E-01  -.766011272360E-01  -.810514968867E-01
  -.856846758554E-01  -.905010775570E-01  -.955003458199E-01  -.100681285679E+00  -.106041793667E+00
  -.111578788369E+00  -.117288142102E+00  -.123164614704E+00  -.129201790505E+00  -.135392019612E+00
  -.141726364675E+00  -.148194554291E+00  -.154784944129E+00  -.161484486785E+00  -.168278711279E+00
  -.175151713115E+00  -.182086156000E+00  -.189063286903E+00  -.196062967129E+00  -.203063723654E+00
  -.210042826631E+00  -.216976399744E+00  -.223839567594E+00  -.230606634889E+00  -.237251271923E+00
  -.243746651182E+00  -.250065451183E+00  -.256179648389E+00  -.262060086160E+00  -.267675950268E+00
  -.272994432823E+00  -.277980892975E+00  -.282599596502E+00  -.286814748291E+00  -.290591379954E+00
  -.293895865125E+00  -.296696126843E+00  -.298961710112E+00  -.300663844074E+00  -.301775538747E+00
  -.302271710613E+00  -.302129310013E+00  -.301327420640E+00  -.299847307998E+00  -.297672403982E+00
  -.294788224056E+00  -.291182220151E+00  -.286843575994E+00  -.281762952982E+00  -.275932194803E+00
  -.269343998208E+00  -.261991556747E+00  -.253868182995E+00  -.244966913986E+00  -.235280103403E+00
  -.224799002988E+00  -.213513334624E+00  -.201410853345E+00  -.188476900630E+00  -.174693946475E+00
  -.160041117947E+00  -.144493711493E+00  -.128022685923E+00  -.110594132690E+00  -.921687201889E-01
  -.727011079426E-01  -.521393220615E-01  -.304240892160E-01  -.748815996157E-02   .167444424032E-01
   .423592401365E-01   .694521929757E-01   .981306776901E-01   .128514568402E+00   .160737432060E+00
   .194947854059E+00   .231310910554E+00   .270009807749E+00   .311247715232E+00   .355249830896E+00
   .402265728751E+00   .452572056849E+00   .506475668526E+00
 pseudo wavefunction
   .625772735697E-05   .645326567785E-05   .665491408254E-05   .686286349594E-05   .707731080888E-05
   .729845906456E-05   .752651765076E-05   .776170249814E-05   .800423628464E-05   .825434864636E-05
   .851227639495E-05   .877826374187E-05   .905256252956E-05   .933543246996E-05   .962714139035E-05
   .992796548698E-05   .102381895866E-04   .105581074159E-04   .108880218803E-04   .112282453497E-04
   .115790999552E-04   .119409178936E-04   .123140417421E-04   .126988247827E-04   .130956313364E-04
   .135048371085E-04   .139268295443E-04   .143620081958E-04   .148107851001E-04   .152735851693E-04
   .157508465933E-04   .162430212543E-04   .167505751549E-04   .172739888591E-04   .178137579474E-04
   .183703934864E-04   .189444225121E-04   .195363885292E-04   .201468520261E-04   .207763910049E-04
   .214256015291E-04   .220950982882E-04   .227855151792E-04   .234975059071E-04   .242317446040E-04
   .249889264672E-04   .257697684176E-04   .265750097786E-04   .274054129758E-04   .282617642595E-04
   .291448744488E-04   .300555796994E-04   .309947422955E-04   .319632514663E-04   .329620242280E-04
   .339920062521E-04   .350541727610E-04   .361495294513E-04   .372791134464E-04   .384439942785E-04
   .396452749014E-04   .408840927348E-04   .421616207419E-04   .434790685398E-04   .448376835451E-04
   .462387521554E-04   .476836009672E-04   .491735980329E-04   .507101541557E-04   .522947242264E-04
   .539288086007E-04   .556139545209E-04   .573517575809E-04   .591438632374E-04   .609919683690E-04
   .628978228828E-04   .648632313724E-04   .668900548272E-04   .689802123955E-04   .711356832020E-04
   .733585082232E-04   .756507922207E-04   .780147057355E-04   .804524871442E-04   .829664447801E-04
   .855589591204E-04   .882324850415E-04   .909895541458E-04   .938327771607E-04   .967648464124E-04
   .997885383786E-04   .102906716319E-03   .106122332991E-03   .109438433447E-03   .112858157922E-03
   .116384744812E-03   .120021533743E-03   .123771968741E-03   .127639601493E-03   .131628094721E-03
   .135741225654E-03   .139982889612E-03   .144357103702E-03   .148868010631E-03   .153519882635E-03
   .158317125539E-03   .163264282935E-03   .168366040501E-03   .173627230448E-03   .179052836111E-03
   .184647996685E-03   .190418012109E-03   .196368348100E-03   .202504641357E-03   .208832704913E-03
   .215358533675E-03   .222088310120E-03   .229028410183E-03   .236185409333E-03   .243566088830E-03
   .251177442189E-03   .259026681851E-03   .267121246057E-03   .275468805946E-03   .284077272883E-03
   .292954806009E-03   .302109820042E-03   .311550993325E-03   .321287276125E-03   .331327899207E-03
   .341682382675E-03   .352360545103E-03   .363372512956E-03   .374728730316E-03   .386439968922E-03
   .398517338532E-03   .410972297629E-03   .423816664465E-03   .437062628472E-03   .450722762040E-03
   .464810032688E-03   .479337815626E-03   .494319906740E-03   .509770535995E-03   .525704381295E-03
   .542136582792E-03   .559082757684E-03   .576559015498E-03   .594581973896E-03   .613168775014E-03
   .632337102351E-03   .652105198239E-03   .672491881913E-03   .693516568201E-03   .715199286862E-03
   .737560702606E-03   .760622135803E-03   .784405583942E-03   .808933743834E-03   .834230034628E-03
   .860318621647E-03   .887224441095E-03   .914973225669E-03   .943591531123E-03   .973106763821E-03
   .100354720932E-02   .103494206207E-02   .106732145620E-02   .110071649756E-02   .113515929699E-02
   .117068300491E-02   .120732184730E-02   .124511116316E-02   .128408744347E-02   .132428837183E-02
   .136575286679E-02   .140852112593E-02   .145263467200E-02   .149813640093E-02   .154507063211E-02
   .159348316083E-02   .164342131327E-02   .169493400394E-02   .174807179591E-02   .180288696392E-02
   .185943356061E-02   .191776748599E-02   .197794656049E-02   .204003060177E-02   .210408150546E-02
   .217016333033E-02   .223834238796E-02   .230868733740E-02   .238126928511E-02   .245616189060E-02
   .253344147815E-02   .261318715518E-02   .269548093758E-02   .278040788276E-02   .286805623092E-02
   .295851755505E-02   .305188692069E-02   .314826305588E-02   .324774853234E-02   .335044995873E-02
   .345647818699E-02   .356594853279E-02   .367898101141E-02   .379570059017E-02   .391623745893E-02
   .404072732016E-02   .416931170024E-02   .430213828382E-02   .443936127327E-02   .458114177536E-02
   .472764821751E-02   .487905679631E-02   .503555196100E-02   .519732693519E-02   .536458427994E-02
   .553753650208E-02   .571640671181E-02   .590142933372E-02   .609285087632E-02   .629093076510E-02
   .649594224493E-02   .670817335797E-02   .692792800381E-02   .715552708950E-02   .739130977715E-02
   .763563483824E-02   .788888212406E-02   .815145416278E-02   .842377789447E-02   .870630655655E-02
   .899952173314E-02   .930393558286E-02   .962009326133E-02   .994857555532E-02   .102900017478E-01
   .106450327341E-01   .110143744114E-01   .113987813659E-01   .117990608833E-01   .122160773114E-01
   .126507568049E-01   .131040924858E-01   .135771500545E-01   .140710738912E-01   .145870936874E-01
   .151265316539E-01   .156908103509E-01   .162814611940E-01   .169001336887E-01   .175486054538E-01
   .182287930948E-01   .189427639942E-01   .196927490897E-01   .204811567131E-01   .213105875692E-01
   .221838509373E-01   .231039821785E-01   .240742616403E-01   .250982350482E-01   .261797354786E-01
   .273229070081E-01   .285322301340E-01   .298125490600E-01   .311691009400E-01   .326075471638E-01
   .341340067677E-01   .357550920368E-01   .374779463548E-01   .393102843411E-01   .412604342871E-01
   .433373828783E-01   .455508221532E-01   .479111986014E-01   .504297642563E-01   .531186295663E-01
   .559908177567E-01   .590603202985E-01   .623421529954E-01   .658524120695E-01   .696083294813E-01
   .736283265435E-01   .779320646933E-01   .825404920560E-01   .874758841736E-01   .927618769764E-01
   .984234897415E-01   .104487135408E+00   .110980615202E+00   .117933094068E+00   .125375052899E+00
   .133338213009E+00   .141855427725E+00   .150960535346E+00   .160688167090E+00   .171073503010E+00
   .182151968232E+00   .193958861263E+00   .206528905622E+00   .219895715629E+00   .234091166967E+00
   .249144662640E+00   .265082285310E+00   .281925827730E+00   .299691694348E+00   .318389669129E+00
   .338021547516E+00   .358579634352E+00   .380045114679E+00   .402386310933E+00   .425556848283E+00
   .449493760001E+00   .474115576936E+00   .499320459646E+00   .524984448450E+00   .550959925690E+00
   .577074405542E+00   .603129789335E+00   .628902247863E+00   .654142915249E+00   .678579600126E+00
   .701919736667E+00   .723854807596E+00   .744066469725E+00   .762228534470E+00   .778123726362E+00
   .791684451361E+00   .802878609667E+00   .811684745620E+00
 ae wavefunction
  -.899198353841E-03  -.926712521187E-03  -.955066450255E-03  -.984285638958E-03  -.101439635132E-02
  -.104542563998E-02  -.107740136938E-02  -.111035223955E-02  -.114430781055E-02  -.117929852763E-02
  -.121535574704E-02  -.125251176256E-02  -.129079983278E-02  -.133025420905E-02  -.137091016429E-02
  -.141280402248E-02  -.145597318897E-02  -.150045618161E-02  -.154629266272E-02  -.159352347183E-02
  -.164219065935E-02  -.169233752109E-02  -.174400863366E-02  -.179724989080E-02  -.185210854063E-02
  -.190863322383E-02  -.196687401281E-02  -.202688245183E-02  -.208871159815E-02  -.215241606412E-02
  -.221805206039E-02  -.228567744012E-02  -.235535174418E-02  -.242713624757E-02  -.250109400678E-02
  -.257728990833E-02  -.265579071839E-02  -.273666513352E-02  -.281998383256E-02  -.290581952963E-02
  -.299424702829E-02  -.308534327685E-02  -.317918742486E-02  -.327586088067E-02  -.337544737027E-02
  -.347803299720E-02  -.358370630361E-02  -.369255833253E-02  -.380468269119E-02  -.392017561554E-02
  -.403913603582E-02  -.416166564322E-02  -.428786895766E-02  -.441785339653E-02  -.455172934446E-02
  -.468961022412E-02  -.483161256783E-02  -.497785609014E-02  -.512846376124E-02  -.528356188103E-02
  -.544328015406E-02  -.560775176491E-02  -.577711345430E-02  -.595150559549E-02  -.613107227119E-02
  -.631596135059E-02  -.650632456660E-02  -.670231759308E-02  -.690410012192E-02  -.711183593981E-02
  -.732569300460E-02  -.754584352100E-02  -.777246401539E-02  -.800573540968E-02  -.824584309382E-02
  -.849297699682E-02  -.874733165594E-02  -.900910628387E-02  -.927850483344E-02  -.955573605970E-02
  -.984101357881E-02  -.101345559236E-01  -.104365865952E-01  -.107473341103E-01  -.110670320437E-01
  -.113959190656E-01  -.117342389731E-01  -.120822407151E-01  -.124401784105E-01  -.128083113584E-01
  -.131869040403E-01  -.135762261130E-01  -.139765523913E-01  -.143881628210E-01  -.148113424389E-01
  -.152463813215E-01  -.156935745191E-01  -.161532219760E-01  -.166256284347E-01  -.171111033226E-01
  -.176099606218E-01  -.181225187176E-01  -.186491002274E-01  -.191900318064E-01  -.197456439295E-01
  -.203162706469E-01  -.209022493132E-01  -.215039202859E-01  -.221216265937E-01  -.227557135704E-01
  -.234065284540E-01  -.240744199475E-01  -.247597377397E-01  -.254628319830E-01  -.261840527262E-01
  -.269237492988E-01  -.276822696445E-01  -.284599596010E-01  -.292571621217E-01  -.300742164383E-01
  -.309114571583E-01  -.317692132962E-01  -.326478072329E-01  -.335475536006E-01  -.344687580886E-01
  -.354117161665E-01  -.363767117199E-01  -.373640155947E-01  -.383738840454E-01  -.394065570825E-01
  -.404622567149E-01  -.415411850820E-01  -.426435224698E-01  -.437694252084E-01  -.449190234428E-01
  -.460924187738E-01  -.472896817634E-01  -.485108492991E-01  -.497559218126E-01  -.510248603468E-01
  -.523175834670E-01  -.536339640107E-01  -.549738256715E-01  -.563369394121E-01  -.577230197024E-01
  -.591317205784E-01  -.605626315184E-01  -.620152731321E-01  -.634890926619E-01  -.649834592915E-01
  -.664976592625E-01  -.680308907969E-01  -.695822588252E-01  -.711507695225E-01  -.727353246532E-01
  -.743347157283E-01  -.759476179799E-01  -.775725841588E-01  -.792080381632E-01  -.808522685079E-01
  -.825034216460E-01  -.841594951571E-01  -.858183308173E-01  -.874776075715E-01  -.891348344283E-01
  -.907873433036E-01  -.924322818408E-01  -.940666062386E-01  -.956870741239E-01  -.972902375081E-01
  -.988724358728E-01  -.100429789432E+00  -.101958192628E+00  -.103453307915E+00  -.104910559905E+00
  -.106325129937E+00  -.107691951151E+00  -.109005704157E+00  -.110260813372E+00  -.111451444148E+00
  -.112571500771E+00  -.113614625463E+00  -.114574198488E+00  -.115443339510E+00  -.116214910326E+00
  -.116881519111E+00  -.117435526347E+00  -.117869052568E+00  -.118173988109E+00  -.118342005016E+00
  -.118364571301E+00  -.118232967726E+00  -.117938307303E+00  -.117471557703E+00  -.116823566767E+00
  -.115985091322E+00  -.114946829481E+00  -.113699456641E+00  -.112233665352E+00  -.110540209243E+00
  -.108609951173E+00  -.106433915777E+00  -.104003346530E+00  -.101309767468E+00  -.983450496627E-01
  -.951014825035E-01  -.915718498506E-01  -.877495110385E-01  -.836284866986E-01  -.792035493055E-01
  -.744703183056E-01  -.694253596226E-01  -.640662892686E-01  -.583918807179E-01  -.524021756178E-01
  -.460985973220E-01  -.394840666358E-01  -.325631190565E-01  -.253420226800E-01  -.178288958309E-01
  -.100338233555E-01  -.196897041846E-02   .635130744433E-02   .149103593094E-01   .236891401895E-01
   .326661199705E-01   .418172011875E-01   .511156468463E-01   .605320195557E-01   .700341334354E-01
   .795870206160E-01   .891529146265E-01   .986912534872E-01   .108158705783E+00   .117509223245E+00
   .126694123353E+00   .135662205068E+00   .144359900124E+00   .152731461502E+00   .160719189968E+00
   .168263699159E+00   .175304219540E+00   .181778941558E+00   .187625398180E+00   .192780886798E+00
   .197182929987E+00   .200769774111E+00   .203480924170E+00   .205257712737E+00   .206043900277E+00
   .205786303570E+00   .204435448392E+00   .201946241992E+00   .198278660211E+00   .193398443402E+00
   .187277794549E+00   .179896072185E+00   .171240469898E+00   .161306673423E+00   .150099485504E+00
   .137633408003E+00   .123933170145E+00   .109034191331E+00   .929829668192E-01   .758373646553E-01
   .576668227067E-01   .385524353540E-01   .185869202081E-01  -.212554413693E-02  -.234696182120E-01
  -.453192492185E-01  -.675382767194E-01  -.899812070739E-01  -.112494161913E+00  -.134915989271E+00
  -.157079492842E+00  -.178812690457E+00  -.199939984140E+00  -.220283157880E+00  -.239662251068E+00
  -.257896552174E+00  -.274806070475E+00  -.290213681412E+00  -.303947738052E+00  -.315844675777E+00
  -.325751270780E+00  -.333526519703E+00  -.339043268157E+00  -.342189698293E+00  -.342870710681E+00
  -.341009178987E+00  -.336547029506E+00  -.329446094635E+00  -.319688700478E+00  -.307277966505E+00
  -.292237812734E+00  -.274612683925E+00  -.254467009937E+00  -.231884427155E+00  -.206966789220E+00
  -.179832996494E+00  -.150617674278E+00  -.119469728937E+00  -.865508100911E-01  -.520337052407E-01
  -.161006912205E-01   .210581352729E-01   .592465279993E-01   .982637441706E-01   .137906163704E+00
   .177968859678E+00   .218247106128E+00   .258537810450E+00   .298640858779E+00   .338360364663E+00
   .377505812321E+00   .415893058901E+00   .453345157081E+00   .489693249528E+00   .524777291749E+00
   .558446658714E+00   .590560659113E+00   .620988954824E+00   .649611890536E+00   .676320732406E+00
   .701017815151E+00   .723616599449E+00   .744041647225E+00   .762228534470E+00   .778123726362E+00
   .791684451361E+00   .802878609667E+00   .811684745620E+00
 pseudo wavefunction
   .332758200799E-05   .343156061717E-05   .353878829783E-05   .364936657534E-05   .376340014751E-05
   .388099698366E-05   .400226842691E-05   .412732929958E-05   .425629801189E-05   .438929667409E-05
   .452645121207E-05   .466789148661E-05   .481375141630E-05   .496416910438E-05   .511928696945E-05
   .527925188036E-05   .544421529525E-05   .561433340495E-05   .578976728087E-05   .597068302753E-05
   .615725193979E-05   .634965066505E-05   .654806137055E-05   .675267191578E-05   .696367603039E-05
   .718127349764E-05   .740567034351E-05   .763707903181E-05   .787571866534E-05   .812181519332E-05
   .837560162537E-05   .863731825210E-05   .890721287263E-05   .918554102923E-05   .947256624926E-05
   .976856029470E-05   .100738034195E-04   .103885846348E-04   .107132019827E-04   .110479628186E-04
   .113931841018E-04   .117491926962E-04   .121163256790E-04   .124949306607E-04   .128853661138E-04
   .132880017122E-04   .137032186813E-04   .141314101590E-04   .145729815680E-04   .150283509995E-04
   .154979496093E-04   .159822220258E-04   .164816267714E-04   .169966366960E-04   .175277394256E-04
   .180754378234E-04   .186402504659E-04   .192227121345E-04   .198233743215E-04   .204428057523E-04
   .210815929239E-04   .217403406606E-04   .224196726865E-04   .231202322159E-04   .238426825627E-04
   .245877077686E-04   .253560132505E-04   .261483264688E-04   .269653976161E-04   .278080003278E-04
   .286769324146E-04   .295730166180E-04   .304971013896E-04   .314500616944E-04   .324327998398E-04
   .334462463297E-04   .344913607460E-04   .355691326573E-04   .366805825563E-04   .378267628260E-04
   .390087587371E-04   .402276894749E-04   .414847092006E-04   .427810081434E-04   .441178137288E-04
   .454963917407E-04   .469180475208E-04   .483841272050E-04   .498960189987E-04   .514551544922E-04
   .530630100164E-04   .547211080424E-04   .564310186232E-04   .581943608821E-04   .600128045463E-04
   .618880715299E-04   .638219375650E-04   .658162338852E-04   .678728489610E-04   .699937302898E-04
   .721808862420E-04   .744363879649E-04   .767623713465E-04   .791610390403E-04   .816346625542E-04
   .841855844046E-04   .868162203379E-04   .895290616222E-04   .923266774100E-04   .952117171767E-04
   .981869132334E-04   .101255083321E-03   .104419133283E-03   .107682059826E-03   .111046953364E-03
   .114517000952E-03   .118095489315E-03   .121785807968E-03   .125591452439E-03   .129516027589E-03
   .133563251041E-03   .137736956712E-03   .142041098462E-03   .146479753854E-03   .151057128037E-03
   .155777557744E-03   .160645515428E-03   .165665613517E-03   .170842608816E-03   .176181407035E-03
   .181687067473E-03   .187364807847E-03   .193220009266E-03   .199258221382E-03   .205485167684E-03
   .211906750980E-03   .218529059038E-03   .225358370423E-03   .232401160507E-03   .239664107683E-03
   .247154099774E-03   .254878240646E-03   .262843857043E-03   .271058505635E-03   .279529980297E-03
   .288266319630E-03   .297275814716E-03   .306567017139E-03   .316148747256E-03   .326030102756E-03
   .336220467481E-03   .346729520555E-03   .357567245809E-03   .368743941522E-03   .380270230481E-03
   .392157070389E-03   .404415764616E-03   .417057973314E-03   .430095724916E-03   .443541428020E-03
   .457407883685E-03   .471708298150E-03   .486456296000E-03   .501665933781E-03   .517351714102E-03
   .533528600235E-03   .550212031229E-03   .567417937576E-03   .585162757432E-03   .603463453437E-03
   .622337530147E-03   .641803052120E-03   .661878662665E-03   .682583603310E-03   .703937734006E-03
   .725961554105E-03   .748676224163E-03   .772103588586E-03   .796266199186E-03   .821187339682E-03
   .846891051191E-03   .873402158776E-03   .900746299091E-03   .928949949206E-03   .958040456654E-03
   .988046070785E-03   .101899597550E-02   .105092032345E-02   .108385027176E-02   .111781801943E-02
   .115285684646E-02   .118900115481E-02   .122628651137E-02   .126474969299E-02   .130442873378E-02
   .134536297475E-02   .138759311603E-02   .143116127179E-02   .147611102808E-02   .152248750375E-02
   .157033741472E-02   .161970914182E-02   .167065280241E-02   .172322032616E-02   .177746553522E-02
   .183344422905E-02   .189121427445E-02   .195083570102E-02   .201237080242E-02   .207588424416E-02
   .214144317802E-02   .220911736401E-02   .227897930013E-02   .235110436081E-02   .242557094452E-02
   .250246063140E-02   .258185835163E-02   .266385256546E-02   .274853545575E-02   .283600313417E-02
   .292635586193E-02   .301969828644E-02   .311613969498E-02   .321579428689E-02   .331878146562E-02
   .342522615237E-02   .353525912283E-02   .364901736906E-02   .376664448829E-02   .388829110081E-02
   .401411529919E-02   .414428313121E-02   .427896911900E-02   .441835681710E-02   .456263941230E-02
   .471202036819E-02   .486671411767E-02   .502694680657E-02   .519295709190E-02   .536499699817E-02
   .554333283550E-02   .572824618302E-02   .592003494139E-02   .611901445807E-02   .632551872878E-02
   .653990167868E-02   .676253852617E-02   .699382723214E-02   .723419003681E-02   .748407508535E-02
   .774395814300E-02   .801434439871E-02   .829577035513E-02   .858880580073E-02   .889405585751E-02
   .921216309496E-02   .954380969737E-02   .988971966759E-02   .102506610449E-01   .106274481092E-01
   .110209435358E-01   .114320604572E-01   .118617643781E-01   .123110748763E-01   .127810670117E-01
   .132728723445E-01   .137876794477E-01   .143267337757E-01   .148913367229E-01   .154828436778E-01
   .161026608417E-01   .167522405392E-01   .174330747029E-01   .181466861584E-01   .188946172744E-01
   .196784154721E-01   .204996150078E-01   .213597143480E-01   .222601483587E-01   .232022544067E-01
   .241872313469E-01   .252160902189E-01   .262895953169E-01   .274081941188E-01   .285719343643E-01
   .297803663603E-01   .310324283664E-01   .323263126676E-01   .336593096918E-01   .350276272678E-01
   .364261818572E-01   .378483583402E-01   .392857346991E-01   .407277677387E-01   .421614358347E-01
   .435708346222E-01   .449367215714E-01   .462360055703E-01   .474411780000E-01   .485196823962E-01
   .494332207119E-01   .501369955023E-01   .505788891426E-01   .506985835564E-01   .504266270020E-01
   .496834583590E-01   .483784042193E-01   .464086700540E-01   .436583539488E-01   .399975200001E-01
   .352813785507E-01   .293496320737E-01   .220260586882E-01   .131184198804E-01   .241879477531E-02
  -.102955402139E-01  -.252605510262E-01  -.427230540644E-01  -.629373289210E-01  -.861605631798E-01
  -.112646954928E+00  -.142640306730E+00  -.176364966679E+00  -.214015012180E+00  -.255741635362E+00
  -.301638780848E+00  -.351727212482E+00  -.405937350300E+00  -.464084251523E+00  -.525932864509E+00
  -.591208917696E+00  -.659547216885E+00  -.730460902614E+00
 ae wavefunction
   .129467076207E-03   .133428583235E-03   .137510999937E-03   .141717997541E-03   .146053357577E-03
   .150520975130E-03   .155124862163E-03   .159869150952E-03   .164758097605E-03   .169796085680E-03
   .174987629904E-03   .180337379995E-03   .185850124583E-03   .191530795246E-03   .197384470645E-03
   .203416380780E-03   .209631911350E-03   .216036608238E-03   .222636182110E-03   .229436513133E-03
   .236443655822E-03   .243663844012E-03   .251103495952E-03   .258769219538E-03   .266667817679E-03
   .274806293789E-03   .283191857434E-03   .291831930103E-03   .300734151135E-03   .309906383785E-03
   .319356721438E-03   .329093493979E-03   .339125274305E-03   .349460885000E-03   .360109405165E-03
   .371080177400E-03   .382382814956E-03   .394027209035E-03   .406023536266E-03   .418382266337E-03
   .431114169795E-03   .444230326009E-03   .457742131302E-03   .471661307250E-03   .485999909145E-03
   .500770334628E-03   .515985332481E-03   .531658011597E-03   .547801850096E-03   .564430704619E-03
   .581558819769E-03   .599200837718E-03   .617371807959E-03   .636087197215E-03   .655362899488E-03
   .675215246247E-03   .695661016757E-03   .716717448522E-03   .738402247861E-03   .760733600588E-03
   .783730182792E-03   .807411171710E-03   .831796256681E-03   .856905650164E-03   .882760098807E-03
   .909380894557E-03   .936789885784E-03   .965009488411E-03   .994062697023E-03   .102397309593E-02
   .105476487018E-02   .108646281646E-02   .111909235389E-02   .115267953468E-02   .118725105455E-02
   .122283426303E-02   .125945717339E-02   .129714847237E-02   .133593752949E-02   .137585440604E-02
   .141692986357E-02   .145919537192E-02   .150268311667E-02   .154742600602E-02   .159345767691E-02
   .164081250045E-02   .168952558649E-02   .173963278725E-02   .179117070001E-02   .184417666860E-02
   .189868878381E-02   .195474588238E-02   .201238754467E-02   .207165409073E-02   .213258657475E-02
   .219522677760E-02   .225961719763E-02   .232580103911E-02   .239382219865E-02   .246372524901E-02
   .253555542041E-02   .260935857894E-02   .268518120203E-02   .276307035067E-02   .284307363817E-02
   .292523919518E-02   .300961563090E-02   .309625198993E-02   .318519770467E-02   .327650254302E-02
   .337021655082E-02   .346638998905E-02   .356507326507E-02   .366631685792E-02   .377017123699E-02
   .387668677384E-02   .398591364674E-02   .409790173740E-02   .421270051964E-02   .433035893927E-02
   .445092528491E-02   .457444704918E-02   .470097077965E-02   .483054191913E-02   .496320463466E-02
   .509900163465E-02   .523797397346E-02   .538016084306E-02   .552559935078E-02   .567432428273E-02
   .582636785225E-02   .598175943242E-02   .614052527229E-02   .630268819583E-02   .646826728301E-02
   .663727753232E-02   .680972950381E-02   .698562894216E-02   .716497637882E-02   .734776671266E-02
   .753398876832E-02   .772362483156E-02   .791665016099E-02   .811303247550E-02   .831273141670E-02
   .851569798594E-02   .872187395529E-02   .893119125200E-02   .914357131614E-02   .935892443105E-02
   .957714902637E-02   .979813095367E-02   .100217427345E-01   .102478427812E-01   .104762745907E-01
   .107068659118E-01   .109394278868E-01   .111737541678E-01   .114096200099E-01   .116467813410E-01
   .118849738123E-01   .121239118289E-01   .123632875645E-01   .126027699631E-01   .128420037289E-01
   .130806083109E-01   .133181768834E-01   .135542753287E-01   .137884412271E-01   .140201828583E-01
   .142489782229E-01   .144742740888E-01   .146954850714E-01   .149119927566E-01   .151231448732E-01
   .153282545287E-01   .155265995154E-01   .157174217021E-01   .158999265212E-01   .160732825675E-01
   .162366213215E-01   .163890370136E-01   .165295866466E-01   .166572901935E-01   .167711309892E-01
   .168700563374E-01   .169529783520E-01   .170187750554E-01   .170662917573E-01   .170943427368E-01
   .171017132517E-01   .170871619020E-01   .170494233716E-01   .169872115746E-01   .168992232329E-01
   .167841419118E-01   .166406425379E-01   .164673964269E-01   .162630768448E-01   .160263651262E-01
   .157559573721E-01   .154505717467E-01   .151089563902E-01   .147298979639E-01   .143122308358E-01
   .138548469164E-01   .133567061437E-01   .128168476166E-01   .122344013658E-01   .116086007458E-01
   .109387954244E-01   .102244649366E-01   .946523276252E-02   .866088087554E-02   .781136469954E-02
   .691682839863E-02   .597762041201E-02   .499430913101E-02   .396769860106E-02   .289884411583E-02
   .178906755599E-02   .639972311630E-03  -.546542382426E-03  -.176826787415E-02  -.302267345929E-02
  -.430689485117E-02  -.561772391221E-02  -.695159979709E-02  -.830460166077E-02  -.967244310702E-02
  -.110504685968E-01  -.124336520983E-01  -.138165983277E-01  -.151935469897E-01  -.165583804577E-01
  -.179046353254E-01  -.192255181988E-01  -.205139259982E-01  -.217624709109E-01  -.229635100310E-01
  -.241091796495E-01  -.251914341322E-01  -.262020893120E-01  -.271328703033E-01  -.279754636043E-01
  -.287215732897E-01  -.293629810166E-01  -.298916094897E-01  -.302995889509E-01  -.305793261928E-01
  -.307235755198E-01  -.307255110204E-01  -.305787994394E-01  -.302776728758E-01  -.298170004582E-01
  -.291923580824E-01  -.284000952307E-01  -.274373978241E-01  -.263023460098E-01  -.249939657333E-01
  -.235122729198E-01  -.218583090782E-01  -.200341671656E-01  -.180430066110E-01  -.158890565087E-01
  -.135776061524E-01  -.111149822919E-01  -.850851273348E-02  -.576647613306E-02  -.289803799079E-02
   .868271008447E-04   .317742698748E-02   .636245733779E-02   .963012050375E-02   .129682556736E-01
   .163644740595E-01   .198062866325E-01   .232812064380E-01   .267768090194E-01   .302807492650E-01
   .337807596243E-01   .372646755965E-01   .407205212938E-01   .441366371868E-01   .475017902611E-01
   .508052161010E-01   .540365814686E-01   .571858810087E-01   .602432831776E-01   .631989321856E-01
   .660427052515E-01   .687639202596E-01   .713509877236E-01   .737910018668E-01   .760692678938E-01
   .781687651807E-01   .800695486385E-01   .817480926280E-01   .831765835639E-01   .843221689026E-01
   .851461715846E-01   .856032805383E-01   .856407293072E-01   .851974765745E-01   .842034041498E-01
   .825785499752E-01   .802323959449E-01   .770632327454E-01   .729576267103E-01   .677900167541E-01
   .614224728949E-01   .537046517788E-01   .444739889225E-01   .335561720662E-01   .207659451252E-01
   .590829718095E-02  -.112199070159E-01  -.308277630007E-01  -.531276210327E-01  -.783316948937E-01
  -.106647977832E+00  -.138275362190E+00  -.173397902213E+00  -.212178158210E+00  -.254749569528E+00
  -.301207818949E+00  -.351601173439E+00  -.405919818242E+00  -.464084251523E+00  -.525932864509E+00
  -.591208917696E+00  -.659547216885E+00  -.730460902614E+00
 End of Dataset
 PAW_PBE N 08Apr2002
 5.00000000000000000
 parameters from PSCTR are:
   VRHFIN =N: s2p3
   LEXCH  = PE
   EATOM  =   264.5486 eV,   19.4438 Ry

   TITEL  = PAW_PBE N 08Apr2002
   LULTRA =        F    use ultrasoft PP ?
   IUNSCR =        0    unscreen: 0-lin 1-nonlin 2-no
   RPACOR =     .000    partial core radius
   POMASS =   14.001; ZVAL   =    5.000    mass and valenz
   RCORE  =    1.500    outmost cutoff radius
   RWIGS  =    1.400; RWIGS  =     .741    wigner-seitz radius (au A)
   ENMAX  =  400.000; ENMIN  =  300.000 eV
   ICORE  =        2    local potential
   LCOR   =        T    correct aug charges
   LPAW   =        T    paw PP
   EAUG   =  627.112
   DEXC   =     .000
   RMAX   =    2.247    core radius for proj-oper
   RAUG   =    1.300    factor for augmentation sphere
   RDEP   =    1.514    radius for radial grids
   QCUT   =   -5.562; QGAM   =   11.124    optimization parameters
 
   Description
     l     E      TYP  RCUT    TYP  RCUT
     0   .000     23  1.200
     0   .000     23  1.200
     1   .000     23  1.500
     1   .700     23  1.500
     2   .000      7  1.500
   Error from kinetic energy argument (eV)
   NDATA  =      100
   STEP   =   20.000   1.050
  106.      104.      102.      99.8      98.5      95.8      93.0      91.6
  88.9      86.1      84.8      82.0      79.3      76.6      73.9      71.2
  68.6      66.1      63.5      59.9      57.5      55.1      51.7      49.5
  47.4      44.3      41.4      39.5      36.8      34.2      31.7      29.4
  27.2      25.1      23.2      21.4      19.1      17.5      15.6      14.2
  12.6      11.1      9.72      8.50      7.41      6.43      5.55      4.60
  3.93      3.21      2.60      2.18      1.74      1.37      1.02      .784
  .597      .422      .293      .199      .133      .872E-01  .567E-01  .347E-01
  .238E-01  .169E-01  .137E-01  .123E-01  .116E-01  .109E-01  .100E-01  .875E-02
  .733E-02  .589E-02  .445E-02  .343E-02  .259E-02  .207E-02  .177E-02  .163E-02
  .153E-02  .142E-02  .127E-02  .106E-02  .841E-03  .647E-03  .505E-03  .416E-03
  .381E-03  .372E-03  .362E-03  .337E-03  .285E-03  .227E-03  .173E-03  .137E-03
  .121E-03  .118E-03  .117E-03  .109E-03
END of PSCTR-controll parameters
 local part
 124.721915246208937
   .21525339E+02   .21525656E+02   .21522032E+02   .21515994E+02   .21507544E+02
   .21496684E+02   .21483417E+02   .21467744E+02   .21449665E+02   .21429180E+02
   .21406285E+02   .21380973E+02   .21353237E+02   .21323066E+02   .21290447E+02
   .21255363E+02   .21217798E+02   .21177730E+02   .21135137E+02   .21089993E+02
   .21042269E+02   .20991935E+02   .20938955E+02   .20883291E+02   .20824902E+02
   .20763740E+02   .20699757E+02   .20632897E+02   .20563104E+02   .20490316E+02
   .20414467E+02   .20335489E+02   .20253311E+02   .20167858E+02   .20079052E+02
   .19986815E+02   .19891065E+02   .19791718E+02   .19688691E+02   .19581898E+02
   .19471256E+02   .19356678E+02   .19238082E+02   .19115386E+02   .18988510E+02
   .18857379E+02   .18721920E+02   .18582064E+02   .18437751E+02   .18288922E+02
   .18135529E+02   .17977528E+02   .17814885E+02   .17647574E+02   .17475579E+02
   .17298894E+02   .17117523E+02   .16931482E+02   .16740800E+02   .16545516E+02
   .16345683E+02   .16141367E+02   .15932649E+02   .15719621E+02   .15502391E+02
   .15281081E+02   .15055825E+02   .14826774E+02   .14594092E+02   .14357955E+02
   .14118556E+02   .13876099E+02   .13630801E+02   .13382893E+02   .13132616E+02
   .12880223E+02   .12625979E+02   .12370157E+02   .12113038E+02   .11854915E+02
   .11596085E+02   .11336851E+02   .11077523E+02   .10818414E+02   .10559840E+02
   .10302120E+02   .10045571E+02   .97905115E+01   .95372582E+01   .92861240E+01
   .90374180E+01   .87914439E+01   .85484988E+01   .83088720E+01   .80728442E+01
   .78406858E+01   .76126566E+01   .73890041E+01   .71699631E+01   .69557544E+01
   .67465841E+01   .65426430E+01   .63441057E+01   .61511301E+01   .59638566E+01
   .57824083E+01   .56068897E+01   .54373873E+01   .52739689E+01   .51166837E+01
   .49655622E+01   .48206165E+01   .46818399E+01   .45492079E+01   .44226782E+01
   .43021908E+01   .41876690E+01   .40790200E+01   .39761350E+01   .38788905E+01
   .37871488E+01   .37007590E+01   .36195579E+01   .35433708E+01   .34720127E+01
   .34052892E+01   .33429977E+01   .32849282E+01   .32308648E+01   .31805866E+01
   .31338688E+01   .30904841E+01   .30502033E+01   .30127969E+01   .29780362E+01
   .29456937E+01   .29155452E+01   .28873698E+01   .28609512E+01   .28360790E+01
   .28125490E+01   .27901639E+01   .27687349E+01   .27480813E+01   .27280320E+01
   .27084252E+01   .26891097E+01   .26699448E+01   .26508007E+01   .26315588E+01
   .26121120E+01   .25923646E+01   .25722323E+01   .25516426E+01   .25305342E+01
   .25088570E+01   .24865720E+01   .24636508E+01   .24400754E+01   .24158380E+01
   .23909399E+01   .23653919E+01   .23392129E+01   .23124300E+01   .22850775E+01
   .22571964E+01   .22288337E+01   .22000418E+01   .21708779E+01   .21414029E+01
   .21116813E+01   .20817801E+01   .20517682E+01   .20217158E+01   .19916937E+01
   .19617727E+01   .19320229E+01   .19025133E+01   .18733110E+01   .18444807E+01
   .18160846E+01   .17881814E+01   .17608263E+01   .17340705E+01   .17079608E+01
   .16825394E+01   .16578438E+01   .16339065E+01   .16107548E+01   .15884108E+01
   .15668912E+01   .15462077E+01   .15263665E+01   .15073689E+01   .14892109E+01
   .14718839E+01   .14553744E+01   .14396646E+01   .14247325E+01   .14105520E+01
   .13970938E+01   .13843248E+01   .13722094E+01   .13607093E+01   .13497838E+01
   .13393906E+01   .13294859E+01   .13200246E+01   .13109613E+01   .13022499E+01
   .12938446E+01   .12856999E+01   .12777710E+01   .12700145E+01   .12623879E+01
   .12548507E+01   .12473643E+01   .12398923E+01   .12324005E+01   .12248576E+01
   .12172348E+01   .12095065E+01   .12016498E+01   .11936452E+01   .11854762E+01
   .11771294E+01   .11685948E+01   .11598655E+01   .11509376E+01   .11418104E+01
   .11324859E+01   .11229692E+01   .11132678E+01   .11033919E+01   .10933538E+01
   .10831683E+01   .10728517E+01   .10624224E+01   .10519000E+01   .10413055E+01
   .10306609E+01   .10199890E+01   .10093131E+01   .99865680E+00   .98804386E+00
   .97749779E+00   .96704175E+00   .95669834E+00   .94648935E+00   .93643563E+00
   .92655684E+00   .91687140E+00   .90739622E+00   .89814668E+00   .88913645E+00
   .88037744E+00   .87187970E+00   .86365138E+00   .85569867E+00   .84802583E+00
   .84063513E+00   .83352693E+00   .82669967E+00   .82014993E+00   .81387250E+00
   .80786048E+00   .80210534E+00   .79659704E+00   .79132416E+00   .78627401E+00
   .78143278E+00   .77678567E+00   .77231706E+00   .76801063E+00   .76384956E+00
   .75981666E+00   .75589452E+00   .75206570E+00   .74831284E+00   .74461884E+00
   .74096699E+00   .73734110E+00   .73372564E+00   .73010585E+00   .72646786E+00
   .72279880E+00   .71908686E+00   .71532140E+00   .71149297E+00   .70759344E+00
   .70361595E+00   .69955501E+00   .69540648E+00   .69116755E+00   .68683680E+00
   .68241411E+00   .67790064E+00   .67329883E+00   .66861230E+00   .66384579E+00
   .65900510E+00   .65409703E+00   .64912922E+00   .64411015E+00   .63904896E+00
   .63395539E+00   .62883965E+00   .62371232E+00   .61858424E+00   .61346641E+00
   .60836984E+00   .60330550E+00   .59828418E+00   .59331638E+00   .58841224E+00
   .58358145E+00   .57883312E+00   .57417577E+00   .56961719E+00   .56516443E+00
   .56082372E+00   .55660042E+00   .55249900E+00   .54852299E+00   .54467499E+00
   .54095665E+00   .53736863E+00   .53391070E+00   .53058165E+00   .52737938E+00
   .52430093E+00   .52134251E+00   .51849951E+00   .51576664E+00   .51313789E+00
   .51060670E+00   .50816593E+00   .50580801E+00   .50352496E+00   .50130852E+00
   .49915019E+00   .49704134E+00   .49497326E+00   .49293726E+00   .49092475E+00
   .48892731E+00   .48693675E+00   .48494521E+00   .48294519E+00   .48092966E+00
   .47889205E+00   .47682637E+00   .47472720E+00   .47258976E+00   .47040992E+00
   .46818424E+00   .46590999E+00   .46358515E+00   .46120841E+00   .45877919E+00
   .45629760E+00   .45376445E+00   .45118123E+00   .44855007E+00   .44587369E+00
   .44315541E+00   .44039907E+00   .43760898E+00   .43478991E+00   .43194697E+00
   .42908561E+00   .42621155E+00   .42333070E+00   .42044910E+00   .41757289E+00
   .41470822E+00   .41186120E+00   .40903785E+00   .40624400E+00   .40348532E+00
   .40076717E+00   .39809463E+00   .39547240E+00   .39290481E+00   .39039573E+00
   .38794858E+00   .38556629E+00   .38325127E+00   .38100542E+00   .37883007E+00
   .37672604E+00   .37469358E+00   .37273241E+00   .37084172E+00   .36902018E+00
   .36726597E+00   .36557677E+00   .36394984E+00   .36238201E+00   .36086973E+00
   .35940913E+00   .35799601E+00   .35662593E+00   .35529423E+00   .35399608E+00
   .35272654E+00   .35148058E+00   .35025318E+00   .34903928E+00   .34783395E+00
   .34663234E+00   .34542975E+00   .34422169E+00   .34300390E+00   .34177240E+00
   .34052349E+00   .33925382E+00   .33796042E+00   .33664065E+00   .33529231E+00
   .33391360E+00   .33250314E+00   .33105997E+00   .32958359E+00   .32807388E+00
   .32653120E+00   .32495627E+00   .32335023E+00   .32171462E+00   .32005131E+00
   .31836251E+00   .31665075E+00   .31491884E+00   .31316983E+00   .31140699E+00
   .30963376E+00   .30785373E+00   .30607060E+00   .30428812E+00   .30251011E+00
   .30074035E+00   .29898258E+00   .29724048E+00   .29551761E+00   .29381738E+00
   .29214302E+00   .29049756E+00   .28888379E+00   .28730425E+00   .28576120E+00
   .28425659E+00   .28279207E+00   .28136897E+00   .27998827E+00   .27865064E+00
   .27735638E+00   .27610546E+00   .27489752E+00   .27373187E+00   .27260749E+00
   .27152307E+00   .27047699E+00   .26946740E+00   .26849215E+00   .26754889E+00
   .26663508E+00   .26574798E+00   .26488473E+00   .26404232E+00   .26321767E+00
   .26240765E+00   .26160908E+00   .26081879E+00   .26003364E+00   .25925056E+00
   .25846655E+00   .25767874E+00   .25688439E+00   .25608092E+00   .25526595E+00
   .25443730E+00   .25359302E+00   .25273139E+00   .25185093E+00   .25095045E+00
   .25002901E+00   .24908594E+00   .24812086E+00   .24713366E+00   .24612449E+00
   .24509379E+00   .24404226E+00   .24297082E+00   .24188065E+00   .24077315E+00
   .23964992E+00   .23851276E+00   .23736361E+00   .23620457E+00   .23503786E+00
   .23386582E+00   .23269082E+00   .23151532E+00   .23034179E+00   .22917272E+00
   .22801054E+00   .22685768E+00   .22571647E+00   .22458917E+00   .22347790E+00
   .22238468E+00   .22131136E+00   .22025964E+00   .21923101E+00   .21822680E+00
   .21724813E+00   .21629588E+00   .21537076E+00   .21447322E+00   .21360349E+00
   .21276159E+00   .21194731E+00   .21116022E+00   .21039967E+00   .20966484E+00
   .20895467E+00   .20826795E+00   .20760330E+00   .20695917E+00   .20633390E+00
   .20572570E+00   .20513267E+00   .20455284E+00   .20398419E+00   .20342463E+00
   .20287207E+00   .20232442E+00   .20177959E+00   .20123555E+00   .20069032E+00
   .20014199E+00   .19958874E+00   .19902888E+00   .19846082E+00   .19788312E+00
   .19729450E+00   .19669381E+00   .19608010E+00   .19545258E+00   .19481064E+00
   .19415385E+00   .19348199E+00   .19279499E+00   .19209300E+00   .19137633E+00
   .19064547E+00   .18990108E+00   .18914397E+00   .18837513E+00   .18759564E+00
   .18680675E+00   .18600979E+00   .18520621E+00   .18439754E+00   .18358535E+00
   .18277129E+00   .18195704E+00   .18114427E+00   .18033468E+00   .17952994E+00
   .17873169E+00   .17794152E+00   .17716096E+00   .17639144E+00   .17563432E+00
   .17489086E+00   .17416218E+00   .17344930E+00   .17275308E+00   .17207425E+00
   .17141341E+00   .17077099E+00   .17014726E+00   .16954235E+00   .16895623E+00
   .16838871E+00   .16783946E+00   .16730799E+00   .16679368E+00   .16629577E+00
   .16581339E+00   .16534554E+00   .16489113E+00   .16444896E+00   .16401778E+00
   .16359624E+00   .16318296E+00   .16277652E+00   .16237545E+00   .16197831E+00
   .16158362E+00   .16118995E+00   .16079588E+00   .16040004E+00   .16000114E+00
   .15959791E+00   .15918921E+00   .15877397E+00   .15835121E+00   .15792007E+00
   .15747981E+00   .15702980E+00   .15656955E+00   .15609869E+00   .15561698E+00
   .15512431E+00   .15462071E+00   .15410635E+00   .15358150E+00   .15304658E+00
   .15250212E+00   .15194876E+00   .15138724E+00   .15081841E+00   .15024318E+00
   .14966258E+00   .14907765E+00   .14848954E+00   .14789939E+00   .14730842E+00
   .14671785E+00   .14612888E+00   .14554275E+00   .14496066E+00   .14438378E+00
   .14381325E+00   .14325013E+00   .14269547E+00   .14215020E+00   .14161519E+00
   .14109123E+00   .14057900E+00   .14007909E+00   .13959198E+00   .13911804E+00
   .13865753E+00   .13821060E+00   .13777728E+00   .13735749E+00   .13695102E+00
   .13655759E+00   .13617677E+00   .13580805E+00   .13545084E+00   .13510443E+00
   .13476804E+00   .13444084E+00   .13412190E+00   .13381026E+00   .13350490E+00
   .13320479E+00   .13290884E+00   .13261597E+00   .13232509E+00   .13203512E+00
   .13174499E+00   .13145366E+00   .13116014E+00   .13086347E+00   .13056275E+00
   .13025715E+00   .12994591E+00   .12962835E+00   .12930385E+00   .12897193E+00
   .12863214E+00   .12828419E+00   .12792783E+00   .12756295E+00   .12718952E+00
   .12680763E+00   .12641744E+00   .12601923E+00   .12561336E+00   .12520028E+00
   .12478053E+00   .12435471E+00   .12392350E+00   .12348764E+00   .12304794E+00
   .12260523E+00   .12216039E+00   .12171434E+00   .12126801E+00   .12082233E+00
   .12037825E+00   .11993670E+00   .11949860E+00   .11906484E+00   .11863628E+00
   .11821374E+00   .11779797E+00   .11738968E+00   .11698952E+00   .11659805E+00
   .11621578E+00   .11584313E+00   .11548042E+00   .11512791E+00   .11478576E+00
   .11445406E+00   .11413278E+00   .11382182E+00   .11352100E+00   .11323004E+00
   .11294859E+00   .11267623E+00   .11241245E+00   .11215668E+00   .11190830E+00
   .11166662E+00   .11143091E+00   .11120040E+00   .11097429E+00   .11075175E+00
   .11053195E+00   .11031402E+00   .11009712E+00   .10988040E+00   .10966304E+00
   .10944423E+00   .10922320E+00   .10899923E+00   .10877162E+00   .10853974E+00
   .10830301E+00   .10806092E+00   .10781303E+00   .10755896E+00   .10729840E+00
   .10703113E+00   .10675700E+00   .10647594E+00   .10618796E+00   .10589315E+00
   .10559167E+00   .10528376E+00   .10496972E+00   .10464995E+00   .10432487E+00
   .10399498E+00   .10366085E+00   .10332307E+00   .10298229E+00   .10263917E+00
   .10229443E+00   .10194880E+00   .10160301E+00   .10125781E+00   .10091395E+00
   .10057217E+00   .10023318E+00   .99897697E-01   .99566386E-01   .99239885E-01
   .98918791E-01   .98603653E-01   .98294967E-01   .97993177E-01   .97698662E-01
   .97411742E-01   .97132669E-01   .96861627E-01   .96598733E-01   .96344031E-01
   .96097497E-01   .95859038E-01   .95628491E-01   .95405629E-01   .95190160E-01
   .94981733E-01   .94779940E-01   .94584321E-01   .94394371E-01   .94209540E-01
   .94029243E-01   .93852866E-01   .93679768E-01   .93509292E-01   .93340767E-01
   .93173518E-01   .93006871E-01   .92840159E-01   .92672731E-01   .92503954E-01
   .92333221E-01   .92159960E-01   .91983632E-01   .91803744E-01   .91619847E-01
   .91431542E-01   .91238485E-01   .91040388E-01   .90837022E-01   .90628218E-01
   .90413869E-01   .90193931E-01   .89968422E-01   .89737421E-01   .89501068E-01
   .89259562E-01   .89013159E-01   .88762166E-01   .88506941E-01   .88247890E-01
   .87985457E-01   .87720125E-01   .87452409E-01   .87182851E-01   .86912012E-01
   .86640472E-01   .86368819E-01   .86097646E-01   .85827545E-01   .85559100E-01
   .85292882E-01   .85029445E-01   .84769316E-01   .84512997E-01   .84260954E-01
   .84013616E-01   .83771371E-01   .83534560E-01   .83303480E-01   .83078373E-01
   .82859430E-01   .82646790E-01   .82440535E-01   .82240691E-01   .82047230E-01
   .81860069E-01   .81679071E-01   .81504046E-01   .81334755E-01   .81170913E-01
   .81012190E-01   .80858214E-01   .80708579E-01   .80562846E-01   .80420547E-01
   .80281192E-01   .80144271E-01   .80009262E-01   .79875635E-01   .79742855E-01
   .79610390E-01   .79477716E-01   .79344319E-01   .79209704E-01   .79073398E-01
   .78934952E-01   .78793950E-01   .78650009E-01   .78502783E-01   .78351967E-01
   .78197300E-01   .78038565E-01   .77875592E-01   .77708262E-01   .77536501E-01
   .77360287E-01   .77179649E-01   .76994661E-01   .76805448E-01   .76612179E-01
   .76415069E-01   .76214373E-01   .76010386E-01   .75803438E-01   .75593891E-01
   .75382136E-01   .75168589E-01   .74953683E-01   .74737870E-01   .74521611E-01
   .74305377E-01   .74089637E-01   .73874860E-01   .73661508E-01   .73450030E-01
   .73240859E-01   .73034410E-01   .72831071E-01   .72631205E-01   .72435141E-01
   .72243177E-01   .72055572E-01   .71872547E-01   .71694281E-01   .71520913E-01
   .71352537E-01   .71189203E-01   .71030917E-01   .70877640E-01   .70729290E-01
   .70585743E-01   .70446834E-01   .70312357E-01   .70182071E-01   .70055701E-01
   .69932940E-01   .69813452E-01   .69696878E-01   .69582837E-01   .69470931E-01
   .69360748E-01   .69251869E-01   .69143867E-01   .69036316E-01   .68928792E-01
   .68820879E-01   .68712171E-01   .68602280E-01   .68490835E-01   .68377486E-01
   .68261912E-01   .68143818E-01   .68022941E-01   .67899052E-01   .67771958E-01
   .67641500E-01   .67507561E-01   .67370062E-01   .67228962E-01   .67084264E-01
   .66936007E-01   .66784270E-01   .66629171E-01   .66470865E-01   .66309540E-01
   .66145418E-01   .65978751E-01   .65809819E-01   .65638926E-01   .65466397E-01
   .65292577E-01   .65117825E-01   .64942511E-01   .64767012E-01   .64591710E-01
   .64416986E-01   .64243218E-01   .64070775E-01   .63900018E-01   .63731291E-01
   .63564920E-01   .63401212E-01   .63240448E-01   .63082884E-01   .62928747E-01
   .62778232E-01   .62631504E-01   .62488693E-01   .62349891E-01   .62215160E-01
   .62084521E-01   .61957962E-01   .61835432E-01   .61716848E-01   .61602091E-01
   .61491009E-01   .61383419E-01   .61279111E-01   .61177844E-01   .61079355E-01
   .60983360E-01   .60889555E-01   .60797620E-01   .60707223E-01   .60618021E-01
   .60529668E-01   .60441813E-01   .60354105E-01   .60266201E-01   .60177762E-01
   .60088461E-01   .59997984E-01   .59906036E-01   .59812340E-01   .59716643E-01
   .59618713E-01   .59518349E-01   .59415376E-01   .59309648E-01   .59201053E-01
   .59089509E-01   .58974967E-01   .58857410E-01   .58736857E-01   .58613357E-01
 gradient corrections used for XC
 5
 atomic pseudo charge-density
   .50000000E+01   .49905920E+01   .49625297E+01   .49162908E+01   .48526485E+01
   .47726391E+01   .46775203E+01   .45687233E+01   .44478032E+01   .43163885E+01
   .41761349E+01   .40286837E+01   .38756263E+01   .37184763E+01   .35586481E+01
   .33974423E+01   .32360365E+01   .30754820E+01   .29167034E+01   .27605022E+01
   .26075624E+01   .24584576E+01   .23136596E+01   .21735467E+01   .20384129E+01
   .19084767E+01   .17838898E+01   .16647446E+01   .15510824E+01   .14428999E+01
   .13401557E+01   .12427762E+01   .11506608E+01   .10636865E+01   .98171194E+00
   .90458151E+00   .83212827E+00   .76417698E+00   .70054656E+00   .64105227E+00
   .58550763E+00   .53372598E+00   .48552186E+00   .44071220E+00   .39911723E+00
   .36056131E+00   .32487354E+00   .29188830E+00   .26144558E+00   .23339135E+00
   .20757767E+00   .18386290E+00   .16211167E+00   .14219496E+00   .12399000E+00
   .10738022E+00   .92255114E-01   .78510091E-01   .66046338E-01   .54770616E-01
   .44595079E-01   .35437065E-01   .27218895E-01   .19867655E-01   .13314990E-01
   .74968898E-02   .23534788E-02  -.21711896E-02  -.61293344E-02  -.95696441E-02
  -.12537468E-01  -.15074999E-01  -.17221454E-01  -.19013244E-01  -.20484138E-01
  -.21665420E-01  -.22586039E-01  -.23272752E-01  -.23750261E-01  -.24041341E-01
  -.24166965E-01  -.24146416E-01  -.23997402E-01  -.23736157E-01  -.23377542E-01
  -.22935135E-01  -.22421320E-01  -.21847372E-01  -.21223529E-01  -.20559071E-01
  -.19862388E-01  -.19141041E-01  -.18401826E-01  -.17650830E-01  -.16893487E-01
  -.16134623E-01  -.15378508E-01  -.14628898E-01  -.13889078E-01  -.13161896E-01
  -.12449805E-01  -.11754893E-01  -.11078916E-01  -.10423328E-01  -.97893049E-02
  -.91777749E-02  -.85894391E-02  -.80247948E-02  -.74841557E-02  -.69676714E-02
  -.64753449E-02  -.60070492E-02  -.55625423E-02  -.51414814E-02  -.47434360E-02
  -.43679000E-02  -.40143022E-02  -.36820170E-02  -.33703735E-02  -.30786639E-02
  -.28061514E-02  -.25520773E-02  -.23156672E-02  -.20961372E-02  -.18926989E-02
  -.17045640E-02  -.15309487E-02  -.13710774E-02  -.12241863E-02  -.10895255E-02
  -.96636251E-03  -.85398380E-03  -.75169686E-03  -.65883175E-03  -.57474238E-03
  -.49880750E-03  -.43043156E-03  -.36904518E-03  -.31410564E-03  -.26509696E-03
  -.22153000E-03  -.18294233E-03  -.14889794E-03  -.11898693E-03  -.92824951E-04
  -.70052694E-04  -.50335202E-04  -.33361152E-04  -.18842059E-04  -.65114415E-05
   .38760630E-05   .12545615E-04   .19703113E-04   .25536152E-04   .30214996E-04
   .33893552E-04   .36710342E-04   .38789474E-04   .40241596E-04   .41164839E-04
   .41645733E-04   .41760111E-04   .41573973E-04   .41144334E-04   .40520031E-04
   .39742502E-04   .38846523E-04   .37860918E-04   .36809223E-04   .35710316E-04
   .34579005E-04   .33426582E-04   .32261331E-04   .31089003E-04   .29913252E-04
   .28736026E-04   .27557934E-04   .26378567E-04   .25196786E-04   .24010980E-04
   .22819290E-04   .21619803E-04   .20410715E-04   .19190469E-04   .17957865E-04
   .16712152E-04   .15453087E-04   .14180986E-04   .12896746E-04   .11601858E-04
   .10298397E-04   .89890087E-05   .76768723E-05   .63656651E-05   .50595101E-05
   .37629206E-05   .24807380E-05   .12180659E-05  -.19798875E-07  -.12274369E-05
  -.23993774E-05  -.35301683E-05  -.46144459E-05  -.56470012E-05  -.66228435E-05
  -.75372600E-05  -.83858715E-05  -.91646822E-05  -.98701252E-05  -.10499102E-04
  -.11049014E-04  -.11517794E-04  -.11903922E-04  -.12206444E-04  -.12424981E-04
  -.12559728E-04  -.12611453E-04  -.12581489E-04  -.12471719E-04  -.12284554E-04
  -.12022915E-04  -.11690196E-04  -.11290240E-04  -.10827295E-04  -.10305982E-04
  -.97312494E-05  -.91083283E-05  -.84426897E-05  -.77399963E-05  -.70060550E-05
  -.62467693E-05  -.54680919E-05  -.46759773E-05  -.38763362E-05  -.30749904E-05
  -.22776305E-05  -.14897744E-05  -.71672956E-06   .36443421E-07   .76496339E-06
   .14643586E-05   .21304932E-05   .27595907E-05   .33482533E-05   .38934783E-05
   .43926705E-05   .48436512E-05   .52446635E-05   .55943743E-05   .58918723E-05
   .61366633E-05   .63286623E-05   .64681816E-05   .65559178E-05   .65929340E-05
   .65806415E-05   .65207784E-05   .64153856E-05   .62667826E-05   .60775406E-05
   .58504548E-05   .55885158E-05   .52948804E-05   .49728414E-05   .46257983E-05
   .42572269E-05   .38706503E-05   .34696093E-05   .30576348E-05   .26382202E-05
   .22147954E-05   .17907023E-05   .13691712E-05   .95329963E-06   .54603217E-06
   .15014276E-06  -.23178140E-06  -.59735377E-06  -.94440039E-06  -.12709696E-05
  -.15753399E-05  -.18560253E-05  -.21117787E-05  -.23415937E-05  -.25447040E-05
  -.27205803E-05  -.28689269E-05  -.29896750E-05  -.30829753E-05  -.31491886E-05
  -.31888754E-05  -.32027842E-05  -.31918380E-05  -.31571211E-05  -.30998637E-05
  -.30214269E-05  -.29232866E-05  -.28070174E-05  -.26742757E-05  -.25267834E-05
  -.23663114E-05  -.21946629E-05  -.20136578E-05  -.18251170E-05  -.16308473E-05
  -.14326271E-05  -.12321932E-05  -.10312275E-05  -.83134591E-06  -.63408706E-06
  -.44090291E-06  -.25315007E-06  -.72082309E-07   .10115571E-06   .26553358E-06
   .42013911E-06   .56418111E-06   .69699107E-06   .81802369E-06   .92685633E-06
   .10231874E-05   .11068339E-05   .11777277E-05   .12359116E-05   .12815336E-05
   .13148415E-05   .13361764E-05   .13459651E-05   .13447133E-05   .13329972E-05
   .13114554E-05   .12807803E-05   .12417099E-05   .11950187E-05   .11415093E-05
   .10820039E-05   .10173362E-05   .94834252E-06   .87585502E-06   .80069361E-06
   .72365918E-06   .64552712E-06   .56704124E-06   .48890838E-06   .41179350E-06
   .33631544E-06   .26304326E-06   .19249323E-06   .12512644E-06   .61347112E-07
   .15013959E-08  -.54123064E-07  -.10529706E-06  -.15184918E-06  -.19366454E-06
  -.23068312E-06  -.26289758E-06  -.29035056E-06  -.31313174E-06  -.33137439E-06
  -.34525179E-06  -.35497319E-06  -.36077980E-06  -.36294038E-06  -.36174694E-06
  -.35751024E-06  -.35055532E-06  -.34121710E-06  -.32983599E-06  -.31675370E-06
  -.30230915E-06  -.28683460E-06  -.27065203E-06  -.25406973E-06  -.23737925E-06
  -.22085261E-06  -.20473984E-06  -.18926690E-06  -.17463392E-06  -.16101384E-06
  -.14855140E-06  -.13736248E-06  -.12753383E-06  -.11912313E-06  -.11215946E-06
  -.10664396E-06  -.10255098E-06  -.99829372E-07  -.98404126E-07  -.98178232E-07
  -.99034758E-07  -.10083911E-06  -.10344147E-06  -.10667933E-06  -.11038012E-06
  -.11436396E-06  -.11844637E-06  -.12244103E-06  -.12616246E-06  -.12942871E-06
  -.13206388E-06  -.13390062E-06  -.13478239E-06  -.13456562E-06  -.13312169E-06
  -.13033864E-06  -.12612274E-06  -.12039978E-06  -.11311612E-06  -.10423951E-06
  -.93759592E-07  -.81688225E-07  -.68059479E-07  -.52929400E-07  -.36375516E-07
  -.18496093E-07   .59083727E-09   .20748680E-07   .41823686E-07   .63646550E-07
   .86034184E-07   .10879164E-06   .13171419E-06   .15458944E-06   .17719964E-06
   .19932399E-06   .22074095E-06   .24123065E-06   .26057721E-06   .27857110E-06
   .29501134E-06   .30970775E-06   .32248293E-06   .33317430E-06   .34163585E-06
   .34773977E-06   .35137799E-06   .35246337E-06   .35093080E-06   .34673811E-06
   .33986661E-06   .33032159E-06   .31813243E-06   .30335259E-06   .28605933E-06
   .26635316E-06   .24435712E-06   .22021587E-06   .19409449E-06   .16617715E-06
   .13666557E-06   .10577734E-06   .73744067E-07   .40809388E-07   .72268839E-08
  -.26742112E-07  -.60830778E-07  -.94769116E-07  -.12828631E-06  -.16111307E-06
  -.19298401E-06  -.22363992E-06  -.25283007E-06  -.28031439E-06  -.30586555E-06
  -.32927098E-06  -.35033470E-06  -.36887904E-06  -.38474620E-06  -.39779963E-06
  -.40792521E-06  -.41503227E-06  -.41905440E-06  -.41994998E-06  -.41770262E-06
  -.41232129E-06  -.40384026E-06  -.39231881E-06  -.37784078E-06  -.36051386E-06
  -.34046865E-06  -.31785766E-06  -.29285395E-06  -.26564975E-06  -.23645483E-06
  -.20549476E-06  -.17300905E-06  -.13924918E-06  -.10447650E-06  -.68960099E-07
  -.32974573E-07   .32021886E-08   .39291286E-07   .75015070E-07   .11009939E-06
   .14427579E-06   .17728369E-06   .20887241E-06   .23880320E-06   .26685110E-06
   .29280672E-06   .31647781E-06   .33769079E-06   .35629200E-06   .37214889E-06
   .38515099E-06   .39521062E-06   .40226354E-06   .40626934E-06   .40721161E-06
   .40509793E-06   .39995973E-06   .39185186E-06   .38085203E-06   .36706007E-06
   .35059697E-06   .33160382E-06   .31024055E-06   .28668454E-06   .26112910E-06
   .23378183E-06   .20486289E-06   .17460317E-06   .14324238E-06   .11102709E-06
   .78208763E-07   .45041704E-07   .11781052E-07  -.21319243E-07  -.54008405E-07
  -.86040780E-07  -.11717773E-06  -.14718944E-06  -.17585665E-06  -.20297232E-06
  -.22834310E-06  -.25179075E-06  -.27315341E-06  -.29228671E-06  -.30906475E-06
  -.32338092E-06  -.33514854E-06  -.34430137E-06  -.35079394E-06  -.35460166E-06
  -.35572087E-06  -.35416862E-06  -.34998237E-06  -.34321945E-06  -.33395645E-06
  -.32228841E-06  -.30832788E-06  -.29220390E-06  -.27406076E-06  -.25405678E-06
  -.23236289E-06  -.20916115E-06  -.18464327E-06  -.15900897E-06  -.13246433E-06
  -.10522016E-06  -.77490279E-07  -.49489827E-07  -.21433587E-07   .64656829E-08
   .33998875E-07   .60962109E-07   .87158249E-07   .11239835E-06   .13650303E-06
   .15930374E-06   .18064391E-06   .20038007E-06   .21838274E-06   .23453730E-06
   .24874464E-06   .26092179E-06   .27100231E-06   .27893661E-06   .28469210E-06
   .28825326E-06   .28962146E-06   .28881482E-06   .28586776E-06   .28083059E-06
   .27376886E-06   .26476265E-06   .25390581E-06   .24130495E-06   .22707854E-06
   .21135578E-06   .19427545E-06   .17598476E-06   .15663803E-06   .13639545E-06
   .11542173E-06   .93884811E-07   .71954483E-07   .49801080E-07   .27594155E-07
   .55011930E-08  -.16313651E-07  -.37690755E-07  -.58476192E-07  -.78522823E-07
  -.97691324E-07  -.11585113E-06  -.13288132E-06  -.14867135E-06  -.16312181E-06
  -.17614495E-06  -.18766518E-06  -.19761949E-06  -.20595769E-06  -.21264264E-06
  -.21765028E-06  -.22096960E-06  -.22260256E-06  -.22256382E-06  -.22088046E-06
  -.21759151E-06  -.21274750E-06  -.20640990E-06  -.19865041E-06  -.18955027E-06
  -.17919950E-06  -.16769604E-06  -.15514485E-06  -.14165704E-06  -.12734887E-06
  -.11234081E-06  -.96756516E-07  -.80721857E-07  -.64363908E-07  -.47809962E-07
  -.31186558E-07  -.14618531E-07   .17719080E-08   .17866053E-07   .33549543E-07
   .48713153E-07   .63253529E-07   .77073867E-07   .90084529E-07   .10220359E-06
   .11335730E-06   .12348054E-06   .13251709E-06   .14041994E-06   .14715144E-06
   .15268342E-06   .15699722E-06   .16008366E-06   .16194291E-06   .16258431E-06
   .16202613E-06   .16029526E-06   .15742682E-06   .15346374E-06   .14845629E-06
   .14246156E-06   .13554286E-06   .12776913E-06   .11921435E-06   .10995681E-06
   .10007846E-06   .89664262E-07   .78801405E-07   .67578665E-07   .56085679E-07
   .44412257E-07   .32647700E-07   .20880142E-07   .91959078E-08  -.23210932E-08
  -.13589950E-07  -.24533292E-07  -.35077795E-07  -.45154641E-07  -.54699944E-07
  -.63655115E-07  -.71967187E-07  -.79589091E-07  -.86479879E-07  -.92604889E-07
  -.97935871E-07  -.10245105E-06  -.10613516E-06  -.10897937E-06  -.11098126E-06
  -.11214465E-06  -.11247944E-06  -.11200142E-06  -.11073197E-06  -.10869782E-06
  -.10593069E-06  -.10246697E-06  -.98347290E-07  -.93616181E-07  -.88321604E-07
  -.82514527E-07  -.76248479E-07  -.69579085E-07  -.62563608E-07  -.55260479E-07
  -.47728841E-07  -.40028092E-07  -.32217437E-07  -.24355456E-07  -.16499692E-07
  -.87062413E-08  -.10293857E-08   .64787683E-08   .13768616E-07   .20793359E-07
   .27509274E-07   .33875960E-07   .39856547E-07   .45417879E-07   .50530655E-07
   .55169553E-07   .59313300E-07   .62944731E-07   .66050801E-07   .68622574E-07
   .70655174E-07   .72147720E-07   .73103217E-07   .73528434E-07   .73433752E-07
   .72832987E-07   .71743200E-07   .70184484E-07   .68179729E-07   .65754385E-07
   .62936204E-07   .59754974E-07   .56242248E-07   .52431068E-07   .48355681E-07
   .44051262E-07   .39553633E-07   .34898986E-07   .30123616E-07   .25263655E-07
   .20354821E-07   .15432173E-07   .10529880E-07   .56810070E-08   .91730945E-09
  -.37309522E-08  -.82351822E-08  -.12568602E-07  -.16706386E-07  -.20625774E-07
  -.24306174E-07  -.27729235E-07  -.30878913E-07  -.33741506E-07  -.36305683E-07
  -.38562485E-07  -.40505317E-07  -.42129917E-07  -.43434310E-07  -.44418757E-07
  -.45085672E-07  -.45439545E-07  -.45486839E-07  -.45235883E-07  -.44696757E-07
  -.43881163E-07  -.42802293E-07  -.41474690E-07  -.39914107E-07  -.38137357E-07
  -.36162163E-07  -.34007015E-07  -.31691011E-07  -.29233715E-07  -.26655007E-07
  -.23974941E-07  -.21213605E-07  -.18390987E-07  -.15526845E-07  -.12640588E-07
  -.97511547E-08  -.68769120E-08  -.40355503E-08  -.12439938E-08   .14816829E-08
   .41263292E-08   .66757834E-08   .91169289E-08   .11437742E-07   .13627327E-07
   .15675952E-07   .17575060E-07   .19317290E-07   .20896475E-07   .22307640E-07
   .23546991E-07   .24611897E-07   .25500862E-07   .26213497E-07   .26750484E-07
   .27113529E-07   .27305321E-07   .27329480E-07   .27190499E-07   .26893693E-07
   .26445132E-07   .25851586E-07   .25120456E-07   .24259715E-07   .23277835E-07
   .22183728E-07   .20986680E-07   .19696282E-07   .18322370E-07   .16874960E-07
   .15364189E-07   .13800254E-07   .12193356E-07   .10553641E-07   .88911541E-08
   .72157829E-08   .55372142E-08   .38648879E-08   .22079556E-08   .57524227E-09
  -.10247893E-08  -.25840712E-08  -.40949597E-08  -.55502613E-08  -.69432565E-08
  -.82677200E-08  -.95179377E-08  -.10688721E-07  -.11775421E-07  -.12773931E-07
  -.13680699E-07  -.14492731E-07  -.15207587E-07  -.15823383E-07  -.16338788E-07
  -.16753015E-07  -.17065817E-07  -.17277472E-07  -.17388774E-07  -.17401019E-07
  -.17315985E-07  -.17135920E-07  -.16863520E-07  -.16501906E-07  -.16054608E-07
  -.15525533E-07  -.14918949E-07  -.14239450E-07  -.13491939E-07  -.12681591E-07
  -.11813829E-07  -.10894292E-07  -.99288083E-08  -.89233601E-08  -.78840552E-08
  -.68170944E-08  -.57287398E-08  -.46252828E-08  -.35130125E-08  -.23981836E-08
  -.12869854E-08  -.18551073E-09   .90027465E-09   .19645614E-08   .30017256E-08
   .40063565E-08   .49732833E-08   .58976006E-08   .67746924E-08   .76002545E-08
   .83703155E-08   .90812557E-08   .97298247E-08   .10313156E-07   .10828781E-07
   .11274638E-07   .11649084E-07   .11950898E-07   .12179287E-07   .12333884E-07
   .12414755E-07   .12422385E-07   .12357681E-07   .12221959E-07   .12016936E-07
   .11744714E-07   .11407769E-07   .11008928E-07   .10551354E-07   .10038525E-07
   .94742066E-08   .88624290E-08   .82074615E-08   .75137832E-08   .67860543E-08
   .60290856E-08   .52478079E-08   .44472402E-08   .36324577E-08   .28085595E-08
   .19806369E-08   .11537410E-08   .33285152E-09  -.47715396E-09  -.12715300E-08
  -.20456920E-08  -.27952437E-08  -.35160030E-08  -.42040268E-08  -.48556331E-08
  -.54674218E-08  -.60362933E-08  -.65594647E-08  -.70344839E-08  -.74592409E-08
  -.78319773E-08  -.81512925E-08  -.84161482E-08  -.86258700E-08  -.87801457E-08
  -.88790227E-08  -.89229013E-08  -.89125269E-08  -.88489789E-08  -.87336583E-08
  -.85682725E-08  -.83548187E-08  -.80955649E-08  -.77930300E-08  -.74499618E-08
  -.70693141E-08  -.66542227E-08  -.62079804E-08  -.57340111E-08  -.52358442E-08
  -.47170875E-08  -.41814013E-08  -.36324718E-08  -.30739853E-08  -.25096024E-08
  -.19429338E-08  -.13775159E-08  -.81678855E-09  -.26407303E-09   .27744774E-09
   .80474795E-09   .13149759E-08   .18054693E-08   .22737688E-08   .27176294E-08
   .31350305E-08   .35241834E-08   .38835369E-08   .42117810E-08   .45078489E-08
   .47709166E-08   .50004012E-08   .51959564E-08   .53574678E-08   .54850447E-08
   .55790121E-08   .56398997E-08   .56684310E-08   .56655104E-08   .56322096E-08
   .55697530E-08   .54795027E-08   .53629420E-08   .52216601E-08   .50573350E-08
   .48717170E-08   .46666129E-08   .44438692E-08   .42053565E-08   .39529542E-08
   .36885356E-08   .34139541E-08   .31310302E-08   .28415390E-08   .25471997E-08
   .22496653E-08   .19505138E-08   .16512408E-08   .13532526E-08   .10578620E-08
   .76628374E-09   .47963236E-09   .19892086E-09  -.74939500E-10  -.34113813E-09
 25.1333556480996805 T
 Non local Part
 0 2 1.18927618932127976
 4.95117802918466055 -0.263395023042996779 -0.263395023042996779 -0.110466427860580457E-01
 Reciprocal Space Part
   .45110332E+01   .45016018E+01   .44733853E+01   .44266159E+01   .43616785E+01
   .42791062E+01   .41795760E+01   .40639015E+01   .39330256E+01   .37880107E+01
   .36300287E+01   .34603494E+01   .32803279E+01   .30913912E+01   .28950241E+01
   .26927541E+01   .24861367E+01   .22767392E+01   .20661255E+01   .18558400E+01
   .16473926E+01   .14422431E+01   .12417875E+01   .10473435E+01   .86013837E+00
   .68129711E+00   .51183207E+00   .35263414E+00   .20446525E+00   .67952726E-01
  -.56414778E-01  -.16828949E+00  -.26746490E+00  -.35387441E+00  -.42758802E+00
  -.48880744E+00  -.53785942E+00  -.57518757E+00  -.60134276E+00  -.61697220E+00
  -.62280752E+00  -.61965191E+00  -.60836658E+00  -.58985678E+00  -.56505763E+00
  -.53491992E+00  -.50039616E+00  -.46242710E+00  -.42192896E+00  -.37978147E+00
  -.33681701E+00  -.29381096E+00  -.25147340E+00  -.21044217E+00  -.17127755E+00
  -.13445850E+00  -.10038034E+00  -.69354156E-01  -.41607581E-01  -.17287075E-01
   .35385049E-02   .20873119E-01   .34787714E-01   .45413499E-01   .52934499E-01
   .57579586E-01   .59614153E-01   .59331627E-01   .57045014E-01   .53078621E-01
   .47760155E-01   .41413304E-01   .34350968E-01   .26869222E-01   .19242103E-01
   .11717294E-01   .45127375E-02  -.21858099E-02  -.82262730E-02  -.13490848E-01
  -.17895726E-01  -.21390012E-01  -.23953936E-01  -.25596433E-01  -.26352204E-01
  -.26278367E-01  -.25450813E-01  -.23960375E-01  -.21908932E-01  -.19405540E-01
  -.16562704E-01  -.13492862E-01  -.10305176E-01  -.71026792E-02  -.39798380E-02
  -.10205562E-02   .17033488E-02   .41331990E-02   .62240414E-02   .79447876E-02
 Real Space Part
  -.86094301E+01  -.85611105E+01  -.84167483E+01  -.81781252E+01  -.78481830E+01
  -.74309829E+01  -.69316493E+01  -.63562983E+01  -.57119525E+01  -.50064432E+01
  -.42483008E+01  -.34466354E+01  -.26110094E+01  -.17513030E+01  -.87757604E+00
   .72880756E-04   .87164777E+00   .17273941E+01   .25579338E+01   .33543935E+01
   .41085244E+01   .48128115E+01   .54605704E+01   .60460296E+01   .65643980E+01
   .70119144E+01   .73858811E+01   .76846774E+01   .79077567E+01   .80556242E+01
   .81297977E+01   .81327519E+01   .80678469E+01   .79392434E+01   .77518064E+01
   .75109982E+01   .72227648E+01   .68934174E+01   .65295112E+01   .61377239E+01
   .57247376E+01   .52971254E+01   .48612447E+01   .44231403E+01   .39884581E+01
   .35623708E+01   .31495175E+01   .27539570E+01   .23791357E+01   .20278696E+01
   .17023408E+01   .14041072E+01   .11341243E+01   .89277839E+00   .67992962E+00
   .49496245E+00   .33684294E+00   .20418031E+00   .95291152E-01   .82645657E-02
  -.58973508E-01  -.10859825E+00  -.14282762E+00  -.16386890E+00  -.17387098E+00
  -.17488322E+00  -.16882125E+00  -.15744003E+00  -.14231409E+00  -.12482489E+00
  -.10615470E+00  -.87286671E-01  -.69010266E-01  -.51931376E-01  -.36486195E-01
  -.22958054E-01  -.11496301E-01  -.21364106E-02   .51794840E-02   .10582333E-01
   .14256819E-01   .16423418E-01   .17322291E-01   .17199279E-01   .16294208E-01
   .14831546E-01   .13013419E-01   .11014865E-01   .89811428E-02   .70268855E-02
   .52368035E-02   .36676579E-02   .23511940E-02   .12977375E-02   .50017228E-03
  -.61956935E-04  -.41843818E-03  -.60466432E-03  -.65832441E-03  -.61661233E-03
 Reciprocal Space Part
  -.23421087E+02  -.23273355E+02  -.22831452E+02  -.22099253E+02  -.21083198E+02
  -.19792270E+02  -.18237952E+02  -.16434181E+02  -.14397273E+02  -.12145841E+02
  -.97006877E+01  -.70846742E+01  -.43225642E+01  -.14408427E+01   .15324956E+01
   .45681853E+01   .76359586E+01   .10704842E+02   .13743479E+02   .16720473E+02
   .19604756E+02   .22365965E+02   .24974835E+02   .27403588E+02   .29626322E+02
   .31619392E+02   .33361764E+02   .34835351E+02   .36025307E+02   .36920290E+02
   .37512663E+02   .37798651E+02   .37778438E+02   .37456193E+02   .36840037E+02
   .35941943E+02   .34777560E+02   .33365982E+02   .31729449E+02   .29892989E+02
   .27884011E+02   .25731855E+02   .23467300E+02   .21122056E+02   .18728225E+02
   .16317773E+02   .13921993E+02   .11570998E+02   .92932264E+01   .71149952E+01
   .50600959E+01   .31494432E+01   .14007868E+01  -.17151112E+00  -.15566273E+01
  -.27473563E+01  -.37401152E+01  -.45348768E+01  -.51350321E+01  -.55471882E+01
  -.57809063E+01  -.58483875E+01  -.57641139E+01  -.55444554E+01  -.52072499E+01
  -.47713697E+01  -.42562818E+01  -.36816139E+01  -.30667355E+01  -.24303627E+01
  -.17901954E+01  -.11625950E+01  -.56230682E+00  -.22338475E-02   .50673618E+00
   .95584746E+00   .13385368E+01   .16504390E+01   .18893393E+01   .20550765E+01
   .21494018E+01   .21757985E+01   .21392691E+01   .20460979E+01   .19035944E+01
   .17198275E+01   .15033557E+01   .12629625E+01   .10074022E+01   .74516327E+00
   .48425446E+00   .23201758E+00  -.50285769E-02  -.22131131E+00  -.41229241E+00
  -.57452147E+00  -.70565470E+00  -.80444084E+00  -.87067655E+00  -.90513442E+00
 Real Space Part
   .63381100E+03   .63319012E+03   .63131750E+03   .62816376E+03   .62368168E+03
   .61780880E+03   .61047088E+03   .60158613E+03   .59107002E+03   .57884057E+03
   .56482374E+03   .54895894E+03   .53120425E+03   .51154126E+03   .48997933E+03
   .46655897E+03   .44135447E+03   .41447533E+03   .38606669E+03   .35630860E+03
   .32541412E+03   .29362636E+03   .26121444E+03   .22846869E+03   .19569489E+03
   .16320811E+03   .13132608E+03   .10036231E+03   .70619333E+02   .42382108E+02
   .15911834E+02  -.85596188E+01  -.30834522E+02  -.50753222E+02  -.68197063E+02
  -.83090262E+02  -.95400666E+02  -.10513942E+03  -.11235956E+03  -.11715360E+03
  -.11965022E+03  -.12001018E+03  -.11842152E+03  -.11509437E+03  -.11025536E+03
  -.10414185E+03  -.96996277E+02  -.89060546E+02  -.80570815E+02  -.71752690E+02
  -.62816995E+02  -.53956169E+02  -.45341390E+02  -.37120431E+02  -.29416281E+02
  -.22326518E+02  -.15923395E+02  -.10254583E+02  -.53445136E+01  -.11962215E+01
   .22063992E+01   .48960255E+01   .69191295E+01   .83330937E+01   .92033167E+01
   .96003976E+01   .95974783E+01   .92678119E+01   .86826086E+01   .79092012E+01
   .70095537E+01   .60391244E+01   .50460814E+01   .40708571E+01   .31460162E+01
   .22964049E+01   .15395420E+01   .88620818E+00   .34118706E+00  -.95888129E-01
  -.42962692E+00  -.66795538E+00  -.82120853E+00  -.90127378E+00  -.92081157E+00
  -.89257293E+00  -.82882753E+00  -.74090914E+00  -.63887981E+00  -.53130903E+00
  -.42515946E+00  -.32576754E+00  -.23690478E+00  -.16090373E+00  -.98832269E-01
  -.50699764E-01  -.15679662E-01   .76653924E-02   .21167912E-01   .26859071E-01
 Non local Part
 1 2 1.18927618932127976
 1.22338086304260707 2.14672215900143470 2.14672215900143470 1.34142492866586371
 Reciprocal Space Part
   .00000000E+00   .23087905E+00   .45959127E+00   .68400091E+00   .90203382E+00
   .11117069E+01   .13111558E+01   .14986608E+01   .16726693E+01   .18318169E+01
   .19749432E+01   .21011058E+01   .22095891E+01   .22999106E+01   .23718221E+01
   .24253074E+01   .24605768E+01   .24780568E+01   .24783780E+01   .24623582E+01
   .24309845E+01   .23853921E+01   .23268417E+01   .22566954E+01   .21763917E+01
   .20874203E+01   .19912973E+01   .18895402E+01   .17836444E+01   .16750614E+01
   .15651783E+01   .14552996E+01   .13466315E+01   .12402685E+01   .11371831E+01
   .10382178E+01   .94408030E+00   .85534161E+00   .77243620E+00   .69566530E+00
   .62520229E+00   .56110016E+00   .50330085E+00   .45164614E+00   .40588965E+00
   .36570986E+00   .33072359E+00   .30049971E+00   .27457284E+00   .25245664E+00
   .23365641E+00   .21768089E+00   .20405296E+00   .19231901E+00   .18205707E+00
   .17288333E+00   .16445728E+00   .15648520E+00   .14872228E+00   .14097322E+00
   .13309153E+00   .12497766E+00   .11657594E+00   .10787080E+00   .98882055E-01
   .89659783E-01   .80278770E-01   .70832776E-01   .61428782E-01   .52181379E-01
   .43207446E-01   .34621242E-01   .26530022E-01   .19030259E-01   .12204534E-01
   .61191437E-02   .82242341E-03  -.36562049E-02  -.73064915E-02  -.10136968E-01
  -.12173970E-01  -.13460135E-01  -.14052480E-01  -.14020125E-01  -.13441776E-01
  -.12403052E-01  -.10993756E-01  -.93051748E-02  -.74274931E-02  -.54473952E-02
  -.34459148E-02  -.14965856E-02   .33606769E-03   .19976745E-02   .34447858E-02
   .46452638E-02   .55783064E-02   .62341281E-02   .66133293E-02   .67259937E-02
 Real Space Part
   .00000000E+00   .13215069E+01   .26294969E+01   .39106933E+01   .51522943E+01
   .63421954E+01   .74691962E+01   .85231847E+01   .94952962E+01   .10378043E+02
   .11165412E+02   .11852928E+02   .12437685E+02   .12918341E+02   .13295078E+02
   .13569538E+02   .13744717E+02   .13824853E+02   .13815270E+02   .13722228E+02
   .13552742E+02   .13314409E+02   .13015219E+02   .12663382E+02   .12267150E+02
   .11834657E+02   .11373774E+02   .10891977E+02   .10396235E+02   .98929241E+01
   .93877615E+01   .88857577E+01   .83911960E+01   .79076300E+01   .74379012E+01
   .69841722E+01   .65479759E+01   .61302751E+01   .57315315E+01   .53517807E+01
   .49907092E+01   .46477329E+01   .43220719E+01   .40128215E+01   .37190165E+01
   .34396875E+01   .31739079E+01   .29208318E+01   .26797209E+01   .24499626E+01
   .22310781E+01   .20227220E+01   .18246746E+01   .16368277E+01   .14591655E+01
   .12917418E+01   .11346558E+01   .98802616E+00   .85196638E+00   .72656170E+00
   .61184854E+00   .50779745E+00   .41429997E+00   .33115985E+00   .25808856E+00
   .19470520E+00   .14054042E+00   .95043957E-01   .57595279E-01   .27516660E-01
   .40880398E-02  -.13437072E-01  -.25815329E-01  -.33797593E-01  -.38113877E-01
  -.39459718E-01  -.38484377E-01  -.35781193E-01  -.31880284E-01  -.27243673E-01
  -.22262838E-01  -.17258560E-01  -.12482876E-01  -.81228831E-02  -.43060697E-02
  -.11068380E-02   .14461418E-02   .33621050E-02   .46802303E-02   .54618535E-02
   .57831268E-02   .57283441E-02   .53841033E-02   .48344194E-02   .41568509E-02
   .34196496E-02   .26798992E-02   .19825694E-02   .13603817E-02   .83435804E-03
 Reciprocal Space Part
   .00000000E+00  -.56102570E+00  -.11037022E+01  -.16102191E+01  -.20638288E+01
  -.24493415E+01  -.27535767E+01  -.29657600E+01  -.30778533E+01  -.30848099E+01
  -.29847467E+01  -.27790293E+01  -.24722679E+01  -.20722225E+01  -.15896218E+01
  -.10378987E+01  -.43285099E+00   .20776432E+00   .86469277E+00   .15176869E+01
   .21460407E+01   .27291393E+01   .32470096E+01   .36808573E+01   .40135754E+01
   .42302116E+01   .43183819E+01   .42686192E+01   .40746487E+01   .37335821E+01
   .32460264E+01   .26161042E+01   .18513852E+01   .96273107E+00  -.35941448E-01
  -.11279743E+01  -.22943490E+01  -.35141250E+01  -.47649242E+01  -.60234495E+01
  -.72660228E+01  -.84691303E+01  -.96099598E+01  -.10666918E+02  -.11620116E+02
  -.12451803E+02  -.13146758E+02  -.13692602E+02  -.14080048E+02  -.14303074E+02
  -.14359016E+02  -.14248574E+02  -.13975752E+02  -.13547709E+02  -.12974543E+02
  -.12269015E+02  -.11446207E+02  -.10523144E+02  -.95183705E+01  -.84515043E+01
  -.73427801E+01  -.62125867E+01  -.50810155E+01  -.39674285E+01  -.28900568E+01
  -.18656391E+01  -.90910620E+00  -.33319509E-01   .75113191E+00   .14360734E+01
   .20158235E+01   .24872107E+01   .28495281E+01   .31044322E+01   .32557875E+01
   .33094653E+01   .32731016E+01   .31558237E+01   .29679526E+01   .27206902E+01
   .24257995E+01   .20952878E+01   .17410990E+01   .13748237E+01   .10074346E+01
   .64905053E+00   .30873683E+00  -.56564782E-02  -.28761534E+00  -.53204026E+00
  -.73528274E+00  -.89514089E+00  -.10108163E+01  -.10828355E+01  -.11129403E+01
  -.11039508E+01  -.10596079E+01  -.98439952E+00  -.88337673E+00  -.76196590E+00
 Real Space Part
   .00000000E+00  -.40768983E+02  -.80817076E+02  -.11943980E+03  -.15596509E+03
  -.18976834E+03  -.22028635E+03  -.24702946E+03  -.26959189E+03  -.28765979E+03
  -.30101700E+03  -.30954818E+03  -.31323950E+03  -.31217675E+03  -.30654097E+03
  -.29660192E+03  -.28270939E+03  -.26528281E+03  -.24479939E+03  -.22178120E+03
  -.19678147E+03  -.17037066E+03  -.14312252E+03  -.11560061E+03  -.88345627E+02
  -.61863814E+02  -.36616718E+02  -.13012581E+02   .86005280E+01   .27939706E+02
   .44790282E+02   .59006963E+02   .70513135E+02   .79298406E+02   .85414582E+02
   .88970239E+02   .90124155E+02   .89077826E+02   .86067334E+02   .81354855E+02
   .75220042E+02   .67951559E+02   .59838986E+02   .51165305E+02   .42200142E+02
   .33193916E+02   .24372978E+02   .15935832E+02   .80504541E+01   .85269586E+00
  -.55542486E+01  -.11099401E+02  -.15742671E+02  -.19472753E+02  -.22304389E+02
  -.24275137E+02  -.25441777E+02  -.25876519E+02  -.25663139E+02  -.24893169E+02
  -.23662271E+02  -.22066874E+02  -.20201171E+02  -.18154528E+02  -.16009350E+02
  -.13839419E+02  -.11708716E+02  -.96707092E+01  -.77680729E+01  -.60328085E+01
  -.44867067E+01  -.31420983E+01  -.20028305E+01  -.10654066E+01  -.32022704E+00
   .24712639E+00   .65461561E+00   .92252746E+00   .10723490E+01   .11257675E+01
   .11038156E+01   .10261760E+01   .91064962E+00   .77278445E+00   .62565820E+00
   .47979930E+00   .34322930E+00   .22160602E+00   .11844568E+00   .35401540E-01
  -.27422356E-01  -.71142450E-01  -.97769691E-01  -.10990130E+00  -.11044224E+00
  -.10236499E+00  -.88513230E-01  -.71451859E-01  -.53363059E-01  -.35985931E-01
 PAW radial sets
 337 0.708915279022619527
(5E20.12)                                
 augmentation charges (non sperical)
  -.121506687787E+00  -.455148147517E-02  -.959423653950E-02   .568235044013E-02  -.455148147517E-02
  -.221294527321E-03   .149257157214E-03   .371551425296E-04  -.959423653950E-02   .149257157214E-03
   .116078371832E+00   .310041503209E-01   .568235044013E-02   .371551425296E-04   .310041503209E-01
   .638391057359E-02
 uccopancies in atom
   .200000000000E+01   .000000000000E+00   .000000000000E+00   .000000000000E+00   .000000000000E+00
   .000000000000E+00   .000000000000E+00   .000000000000E+00   .000000000000E+00   .000000000000E+00
   .999999999728E+00   .000000000000E+00   .000000000000E+00   .000000000000E+00   .000000000000E+00
   .000000000000E+00
 grid
   .280527516333E-04   .289225357721E-04   .298192878340E-04   .307438439676E-04   .316970662468E-04
   .326798434741E-04   .336930920097E-04   .347377566259E-04   .358148113878E-04   .369252605618E-04
   .380701395518E-04   .392505158649E-04   .404674901063E-04   .417221970061E-04   .430158064768E-04
   .443495247045E-04   .457245952736E-04   .471423003259E-04   .486039617567E-04   .501109424469E-04
   .516646475341E-04   .532665257223E-04   .549180706334E-04   .566208221993E-04   .583763680979E-04
   .601863452337E-04   .620524412639E-04   .639763961718E-04   .659600038897E-04   .680051139712E-04
   .701136333158E-04   .722875279473E-04   .745288248462E-04   .768396138405E-04   .792220495539E-04
   .816783534148E-04   .842108157277E-04   .868217978087E-04   .895137341871E-04   .922891348757E-04
   .951505877110E-04   .981007607661E-04   .101142404838E-03   .104278356015E-03   .107511538316E-03
   .110844966423E-03   .114281748487E-03   .117825089030E-03   .121478291928E-03   .125244763500E-03
   .129128015674E-03   .133131669268E-03   .137259457366E-03   .141515228795E-03   .145902951719E-03
   .150426717332E-03   .155090743682E-03   .159899379594E-03   .164857108732E-03   .169968553777E-03
   .175238480738E-03   .180671803396E-03   .186273587883E-03   .192049057411E-03   .198003597136E-03
   .204142759186E-03   .210472267831E-03   .216998024827E-03   .223726114913E-03   .230662811488E-03
   .237814582461E-03   .245188096279E-03   .252790228147E-03   .260628066437E-03   .268708919298E-03
   .277040321473E-03   .285630041319E-03   .294486088053E-03   .303616719224E-03   .313030448405E-03
   .322736053137E-03   .332742583110E-03   .343059368603E-03   .353696029184E-03   .364662482677E-03
   .375968954412E-03   .387625986760E-03   .399644448959E-03   .412035547251E-03   .424810835334E-03
   .437982225128E-03   .451561997889E-03   .465562815655E-03   .479997733055E-03   .494880209481E-03
   .510224121638E-03   .526043776481E-03   .542353924558E-03   .559169773761E-03   .576507003509E-03
   .594381779364E-03   .612810768108E-03   .631811153281E-03   .651400651203E-03   .671597527497E-03
   .692420614113E-03   .713889326894E-03   .736023683677E-03   .758844322957E-03   .782372523134E-03
   .806630222348E-03   .831640038941E-03   .857425292542E-03   .884010025812E-03   .911419026863E-03
   .939677852369E-03   .968812851398E-03   .998851189976E-03   .102982087642E-02   .106175078746E-02
   .109467069516E-02   .112861129465E-02   .116360423281E-02   .119968213770E-02   .123687864907E-02
   .127522844964E-02   .131476729750E-02   .135553205942E-02   .139756074525E-02   .144089254332E-02
   .148556785704E-02   .153162834252E-02   .157911694742E-02   .162807795104E-02   .167855700554E-02
   .173060117855E-02   .178425899706E-02   .183958049263E-02   .189661724807E-02   .195542244556E-02
   .201605091616E-02   .207855919103E-02   .214300555407E-02   .220945009629E-02   .227795477185E-02
   .234858345582E-02   .242140200372E-02   .249647831295E-02   .257388238610E-02   .265368639620E-02
   .273596475402E-02   .282079417747E-02   .290825376313E-02   .299842505997E-02   .309139214544E-02
   .318724170380E-02   .328606310702E-02   .338794849805E-02   .349299287677E-02   .360129418856E-02
   .371295341562E-02   .382807467115E-02   .394676529639E-02   .406913596075E-02   .419530076495E-02
   .432537734748E-02   .445948699420E-02   .459775475151E-02   .474030954290E-02   .488728428917E-02
   .503881603237E-02   .519504606359E-02   .535612005467E-02   .552218819408E-02   .569340532692E-02
   .586993109928E-02   .605193010718E-02   .623957204995E-02   .643303188850E-02   .663249000848E-02
   .683813238844E-02   .705015077324E-02   .726874285286E-02   .749411244673E-02   .772646969374E-02
   .796603124822E-02   .821302048191E-02   .846766769229E-02   .873021031726E-02   .900089315657E-02
   .927996860004E-02   .956769686293E-02   .986434622857E-02   .101701932985E-01   .104855232502E-01
   .108106301035E-01   .111458169942E-01   .114913964569E-01   .118476907164E-01   .122150319883E-01
   .125937627887E-01   .129842362533E-01   .133868164670E-01   .138018788033E-01   .142298102742E-01
   .146710098911E-01   .151258890370E-01   .155948718499E-01   .160783956182E-01   .165769111888E-01
   .170908833870E-01   .176207914503E-01   .181671294750E-01   .187304068773E-01   .193111488675E-01
   .199098969406E-01   .205272093808E-01   .211636617819E-01   .218198475842E-01   .224963786278E-01
   .231938857233E-01   .239130192394E-01   .246544497100E-01   .254188684590E-01   .262069882449E-01
   .270195439257E-01   .278572931437E-01   .287210170323E-01   .296115209441E-01   .305296352018E-01
   .314762158727E-01   .324521455667E-01   .334583342591E-01   .344957201394E-01   .355652704861E-01
   .366679825681E-01   .378048845754E-01   .389770365768E-01   .401855315093E-01   .414314961966E-01
   .427160923999E-01   .440405179010E-01   .454060076197E-01   .468138347644E-01   .482653120201E-01
   .497617927717E-01   .513046723665E-01   .528953894146E-01   .545354271311E-01   .562263147182E-01
   .579696287918E-01   .597669948511E-01   .616200887945E-01   .635306384819E-01   .655004253464E-01
   .675312860547E-01   .696251142200E-01   .717838621675E-01   .740095427550E-01   .763042312493E-01
   .786700672619E-01   .811092567431E-01   .836240740397E-01   .862168640153E-01   .888900442366E-01
   .916461072276E-01   .944876227942E-01   .974172404194E-01   .100437691734E+00   .103551793066E+00
   .106762448061E+00   .110072650395E+00   .113485486565E+00   .117004138763E+00   .120631887848E+00
   .124372116402E+00   .128228311886E+00   .132204069889E+00   .136303097485E+00   .140529216684E+00
   .144886368000E+00   .149378614125E+00   .154010143714E+00   .158785275294E+00   .163708461288E+00
   .168784292168E+00   .174017500736E+00   .179412966535E+00   .184975720401E+00   .190710949150E+00
   .196624000420E+00   .202720387652E+00   .209005795233E+00   .215486083798E+00   .222167295690E+00
   .229055660599E+00   .236157601368E+00   .243479739980E+00   .251028903739E+00   .258812131627E+00
   .266836680875E+00   .275110033725E+00   .283639904409E+00   .292434246341E+00   .301501259532E+00
   .310849398238E+00   .320487378843E+00   .330424187982E+00   .340669090926E+00   .351231640216E+00
   .362121684576E+00   .373349378090E+00   .384925189674E+00   .396859912833E+00   .409164675732E+00
   .421850951565E+00   .434930569259E+00   .448415724497E+00   .462318991095E+00   .476653332723E+00
   .491432114994E+00   .506669117928E+00   .522378548794E+00   .538575055366E+00   .555273739575E+00
   .572490171592E+00   .590240404346E+00   .608540988491E+00   .627408987842E+00   .646861995280E+00
   .666918149159E+00   .687596150219E+00   .708915279023E+00   .730895413931E+00   .753557049641E+00
   .776921316292E+00   .801009999172E+00
 aepotential
   .363639741525E+05   .353486988431E+05   .343218421719E+05   .332873506987E+05   .322493425013E+05
   .312116817821E+05   .301779824554E+05   .291515900552E+05   .281355719873E+05   .271327122522E+05
   .261455097070E+05   .251761801616E+05   .242266612837E+05   .232986206673E+05   .223934661094E+05
   .215123579591E+05   .206562230842E+05   .198257700763E+05   .190215053474E+05   .182437497397E+05
   .174926553864E+05   .167682225150E+05   .160703159665E+05   .153986812261E+05   .147529597911E+05
   .141327037385E+05   .135373894181E+05   .129664301650E+05   .124191880122E+05   .118949843633E+05
   .113931096827E+05   .109128321163E+05   .104534052295E+05   .100140747189E+05   .959408436168E+04
   .919268105970E+04   .880911918884E+04   .844266424842E+04   .809259589992E+04   .775821039989E+04
   .743882261121E+04   .713376751399E+04   .684240134668E+04   .656410242701E+04   .629827164939E+04
   .604433276833E+04   .580173243593E+04   .556994011018E+04   .534844775879E+04   .513676946601E+04
   .493444100413E+04   .474101918523E+04   .455608133122E+04   .437922451875E+04   .421006498213E+04
   .404823730666E+04   .389339377076E+04   .374520359187E+04   .360335219401E+04   .346754051519E+04
   .333748429799E+04   .321291338902E+04   .309357108986E+04   .297921350116E+04   .286960890600E+04
   .276453716092E+04   .266378912080E+04   .256716609088E+04   .247447928324E+04   .238554932784E+04
   .230020577148E+04   .221828663647E+04   .213963796492E+04   .206411341185E+04   .199157384772E+04
   .192188698360E+04   .185492700868E+04   .179057426100E+04   .172871489759E+04   .166924060140E+04
   .161204828066E+04   .155703980758E+04   .150412175443E+04   .145320515704E+04   .140420526364E+04
   .135704135019E+04   .131163647545E+04   .126791731834E+04   .122581396868E+04   .118525976774E+04
   .114619113374E+04   .110854740959E+04   .107227071448E+04   .103730579901E+04   .100359991984E+04
   .971102708549E+03   .939766055312E+03   .909543996388E+03   .880392605856E+03   .852269898434E+03
   .825135730040E+03   .798951711238E+03   .773681119698E+03   .749288819036E+03   .725741183375E+03
   .703006024362E+03   .681052521465E+03   .659851157598E+03   .639373657217E+03   .619592927130E+03
   .600483001830E+03   .582018989710E+03   .564177023819E+03   .546934214176E+03   .530268602534E+03
   .514159120016E+03   .498585546066E+03   .483528470409E+03   .468969255931E+03   .454890004293E+03
   .441273522745E+03   .428103292723E+03   .415363439803E+03   .403038705661E+03   .391114420680E+03
   .379576478711E+03   .368411312191E+03   .357605868845E+03   .347147590092E+03   .337024389275E+03
   .327224631997E+03   .317737116800E+03   .308551056886E+03   .299656062835E+03   .291042125975E+03
   .282699602499E+03   .274619198521E+03   .266791955511E+03   .259209236639E+03   .251862713713E+03
   .244744354458E+03   .237846410836E+03   .231161407375E+03   .224682130329E+03   .218401617250E+03
   .212313147000E+03   .206410230161E+03   .200686599981E+03   .195136203508E+03   .189753193401E+03
   .184531919758E+03   .179466922520E+03   .174552924136E+03   .169784822509E+03   .165157684250E+03
   .160666738222E+03   .156307369361E+03   .152075112703E+03   .147965647713E+03   .143974792800E+03
   .140098500097E+03   .136332850405E+03   .132674048320E+03   .129118417754E+03   .125662397229E+03
   .122302535831E+03   .119035488956E+03   .115858014436E+03   .112766968678E+03   .109759303081E+03
   .106832060482E+03   .103982371805E+03   .101207452823E+03   .985046010377E+02   .958711926753E+02
   .933046798103E+02   .908025876049E+02   .883625116361E+02   .859821153174E+02   .836591274767E+02
   .813913399403E+02   .791766052946E+02   .770128346760E+02   .748979956694E+02   .728301103007E+02
   .708072530777E+02   .688275491452E+02   .668891724779E+02   .649903441822E+02   .631293308353E+02
   .613044429175E+02   .595140333034E+02   .577564958085E+02   .560302638159E+02   .543338089527E+02
   .526656398285E+02   .510243008416E+02   .494083710310E+02   .478164629940E+02   .462472218524E+02
   .446993242848E+02   .431714775948E+02   .416624188544E+02   .401709140744E+02   .386957574524E+02
   .372357706445E+02   .357898021135E+02   .343567265021E+02   .329354440718E+02   .315248801825E+02
   .301239848158E+02   .287317321592E+02   .273471202133E+02   .259691704701E+02   .245969276151E+02
   .232294592857E+02   .218658558680E+02   .205052303380E+02   .191467181433E+02   .177894771268E+02
   .164326874903E+02   .150755517980E+02   .137172950157E+02   .123571645916E+02   .109944305686E+02
   .962838573530E+01   .825834580743E+01   .688364964536E+01   .550365950006E+01   .411776129127E+01
   .272536491297E+01   .132590456771E+01  -.811608726201E-01  -.149634748076E+01  -.292014586199E+01
  -.435302071851E+01  -.579541038874E+01  -.724772636160E+01  -.871035276612E+01  -.101836458321E+02
  -.116679333222E+02  -.131635139298E+02  -.146706566387E+02  -.161896000369E+02  -.177205515777E+02
  -.192636867748E+02  -.208191483196E+02  -.223870451014E+02  -.239674511108E+02  -.255604041983E+02
  -.271659046567E+02  -.287839135878E+02  -.304143510061E+02  -.320570936226E+02  -.337119722409E+02
  -.353787686852E+02  -.370572121637E+02  -.387469749575E+02  -.404476673028E+02  -.421588313190E+02
  -.438799338088E+02  -.456103577416E+02  -.473493922075E+02  -.490962206156E+02  -.508499069039E+02
  -.526093795307E+02  -.543734130444E+02  -.561406070829E+02  -.579093627492E+02  -.596778564634E+02
  -.614440116193E+02  -.632054686969E+02  -.649595549163E+02  -.667032550900E+02  -.684331860342E+02
  -.701455777437E+02  -.718362654769E+02  -.735006978979E+02  -.751339673772E+02  -.767308693647E+02
  -.782859982940E+02  -.797938876916E+02  -.812492020575E+02  -.826469878511E+02  -.839829910573E+02
  -.852540490827E+02  -.864585671912E+02  -.875970892780E+02  -.886729693113E+02  -.896931274595E+02
  -.906688133867E+02  -.916161615546E+02  -.925560698026E+02  -.935125585017E+02  -.945084003335E+02
  -.955568564711E+02  -.966495565018E+02  -.977435752368E+02  -.987548956466E+02  -.995673584555E+02
  -.100061379620E+03  -.100154992533E+03  -.998385173631E+02  -.991826926026E+02  -.983122581877E+02
  -.973581436293E+02  -.964160582281E+02  -.955317704410E+02  -.947111132488E+02  -.939390886823E+02
  -.931953467187E+02  -.924622718412E+02  -.917274076175E+02  -.909830054766E+02  -.902246341771E+02
  -.894498046272E+02  -.886569511579E+02  -.878448120816E+02  -.870121334636E+02  -.861575898467E+02
  -.852798259845E+02  -.843775489340E+02  -.834496263823E+02  -.824951684779E+02  -.815135848938E+02
  -.805046170962E+02  -.794683496812E+02  -.784052057147E+02  -.773159306962E+02  -.762015689104E+02
  -.750634350168E+02  -.739030826194E+02  -.727222713575E+02  -.715229330450E+02  -.703071374144E+02
  -.690770577969E+02  -.678349366580E+02
 core charge-density
   .378166384757E-05   .401938221399E-05   .427204066085E-05   .454057784405E-05   .482599136570E-05
   .512934147321E-05   .545175499020E-05   .579442949387E-05   .615863775415E-05   .654573245093E-05
   .695715118702E-05   .739442181501E-05   .785916809796E-05   .835311572453E-05   .887809870087E-05
   .943606614281E-05   .100290894932E-04   .106593701912E-04   .113292478214E-04   .120412087736E-04
   .127978954431E-04   .136021160083E-04   .144568548188E-04   .153652834335E-04   .163307723491E-04
   .173569034617E-04   .184474833077E-04   .196065571320E-04   .208384238353E-04   .221476518555E-04
   .235390960405E-04   .250179155760E-04   .265895930308E-04   .282599545926E-04   .300351915660E-04
   .319218832115E-04   .339270210099E-04   .360580344392E-04   .383228183591E-04   .407297621019E-04
   .432877803764E-04   .460063460970E-04   .488955252567E-04   .519660139717E-04   .552291778313E-04
   .586970936959E-04   .623825940948E-04   .662993143841E-04   .704617428360E-04   .748852738393E-04
   .795862644046E-04   .845820941769E-04   .898912291720E-04   .955332894673E-04   .101529121088E-03
   .107900872352E-03   .114672074936E-03   .121867729970E-03   .129514399458E-03   .137640303344E-03
   .146275422593E-03   .155451608631E-03   .165202699543E-03   .175564643455E-03   .186575629507E-03
   .198276226915E-03   .210709532591E-03   .223921327859E-03   .237960244800E-03   .252877942839E-03
   .268729296164E-03   .285572592666E-03   .303469745067E-03   .322486515002E-03   .342692750813E-03
   .364162639902E-03   .386974976500E-03   .411213445807E-03   .436966925455E-03   .464329805358E-03
   .493402327040E-03   .524290943604E-03   .557108701578E-03   .591975645945E-03   .629019249726E-03
   .668374869583E-03   .710186228981E-03   .754605930542E-03   .801795999301E-03   .851928458704E-03
   .905185941259E-03   .961762335868E-03   .102186347400E-02   .108570785696E-02   .115352742663E-02
   .122556838226E-02   .130209204591E-02   .138337577935E-02   .146971395547E-02   .156141898719E-02
   .165882241729E-02   .176227607249E-02   .187215328560E-02   .198885018939E-02   .211278708638E-02
   .224440989875E-02   .238419170285E-02   .253263435297E-02   .269027019941E-02   .285766390598E-02
   .303541437236E-02   .322415676715E-02   .342456467750E-02   .363735238163E-02   .386327725094E-02
   .410314228842E-02   .435779881085E-02   .462814928203E-02   .491515030523E-02   .521981578291E-02
   .554322025240E-02   .588650240652E-02   .625086880843E-02   .663759781052E-02   .704804368736E-02
   .748364099335E-02   .794590915589E-02   .843645731536E-02   .895698942371E-02   .950930961369E-02
   .100953278512E-01   .107170658839E-01   .113766634985E-01   .120763851020E-01   .128186266388E-01
   .136059228594E-01   .144409549552E-01   .153265585731E-01   .162657322265E-01   .172616461172E-01
   .183176513830E-01   .194372897880E-01   .206243038695E-01   .218826475581E-01   .232164972855E-01
   .246302635953E-01   .261286032715E-01   .277164319986E-01   .293989375669E-01   .311815936358E-01
   .330701740666E-01   .350707678356E-01   .371897945364E-01   .394340204794E-01   .418105753938E-01
   .443269697359E-01   .469911126043E-01   .498113302613E-01   .527963852542E-01   .559554961287E-01
   .592983577222E-01   .628351620189E-01   .665766195451E-01   .705339812770E-01   .747190610268E-01
   .791442582658E-01   .838225813376E-01   .887676710020E-01   .939938242464E-01   .995160182871E-01
   .105349934674E+00   .111511983402E+00   .118019326912E+00   .124889903864E+00   .132142452534E+00
   .139796533688E+00   .147872552742E+00   .156391781033E+00   .165376375983E+00   .174849399906E+00
   .184834837227E+00   .195357609811E+00   .206443590098E+00   .218119611727E+00   .230413477255E+00
   .243353962607E+00   .256970817822E+00   .271294763636E+00   .286357483419E+00   .302191609933E+00
   .318830706372E+00   .336309241058E+00   .354662555192E+00   .373926822969E+00   .394139003372E+00
   .415336782889E+00   .437558508392E+00   .460843109360E+00   .485230008624E+00   .510759020751E+00
   .537470237197E+00   .565403897303E+00   .594600244233E+00   .625099364900E+00   .656941012977E+00
   .690164414050E+00   .724808052028E+00   .760909435932E+00   .798504846243E+00   .837629060032E+00
   .878315054192E+00   .920593686163E+00   .964493351671E+00   .101003961913E+01   .105725484051E+01
   .110615773869E+01   .115676297144E+01   .120908067261E+01   .126311597105E+01   .131886848851E+01
   .137633181772E+01   .143549298248E+01   .149633188186E+01   .155882072117E+01   .162292343267E+01
   .168859508975E+01   .175578131859E+01   .182441771210E+01   .189442925138E+01   .196572974067E+01
   .203822126243E+01   .211179365968E+01   .218632405344E+01   .226167640400E+01   .233770112491E+01
   .241423475950E+01   .249109973027E+01   .256810417178E+01   .264504185819E+01   .272169223696E+01
   .279782058021E+01   .287317826544E+01   .294750319715E+01   .302052038044E+01   .309194265750E+01
   .316147161666E+01   .322879868312E+01   .329360639899E+01   .335556989863E+01   .341435858370E+01
   .346963799983E+01   .352107191457E+01   .356832459326E+01   .361106326663E+01   .364896078013E+01
   .368169841153E+01   .370896883948E+01   .373047924128E+01   .374595449408E+01   .375514044920E+01
   .375780724509E+01   .375375261983E+01   .374280518040E+01   .372482758171E+01   .369971956525E+01
   .366742080426E+01   .362791350021E+01   .358122467382E+01   .352742809355E+01   .346664578522E+01
   .339904906800E+01   .332485906545E+01   .324434664489E+01   .315783174432E+01   .306568205413E+01
   .296831102995E+01   .286617522395E+01   .275977093447E+01   .264963018743E+01   .253631607809E+01
   .242041751766E+01   .230254344544E+01   .218331658354E+01   .206336682733E+01   .194332437785E+01
   .182381274100E+01   .170544171472E+01   .158880050993E+01   .147445114069E+01   .136292222279E+01
   .125470331188E+01   .115023989871E+01   .104992915545E+01   .954116492060E+00   .863092930985E+00
   .777093246588E+00   .696294757090E+00   .620816638218E+00   .550719698696E+00   .486006745643E+00
   .426623916802E+00   .372463504183E+00   .323368663209E+00   .279139964416E+00   .239543195086E+00
   .204317468497E+00   .173182769327E+00   .145846494262E+00   .122009020820E+00   .101368570213E+00
   .836255977702E-01   .684868026748E-01   .556687339940E-01   .449009229172E-01   .359284740988E-01
   .285140746905E-01   .224394102278E-01   .175060040292E-01   .135355187265E-01   .103695748506E-01
   .786915260934E-02   .591364975020E-02   .439967123087E-02   .323962578827E-02   .236020085325E-02
   .170078111056E-02   .121186792537E-02   .853547471704E-03   .594045345389E-03   .408395332007E-03
   .277240368983E-03   .185775024687E-03   .122831330663E-03   .801037312383E-04   .515043216509E-04
   .326363884425E-04   .203724167859E-04
 kinetic energy-density
   .532955807213E-01   .540205706616E-01   .547722478392E-01   .555517135887E-01   .563601491850E-01
   .571988017377E-01   .580689880635E-01   .589720973273E-01   .599095940565E-01   .608830213004E-01
   .618940040930E-01   .629442529804E-01   .640355679050E-01   .651698423542E-01   .663490677411E-01
   .675753381164E-01   .688508552289E-01   .701779339175E-01   .715590078974E-01   .729966359175E-01
   .744935083777E-01   .760524543607E-01   .776764491609E-01   .793686222735E-01   .811322659457E-01
   .829708442599E-01   .848880027939E-01   .868875788931E-01   .889736126049E-01   .911503582530E-01
   .934222967647E-01   .957941487592E-01   .982708883705E-01   .100857758005E+00   .103560283916E+00
   .106384292764E+00   .109335929155E+00   .112421674248E+00   .115648365476E+00   .119023217450E+00
   .122553844137E+00   .126248282351E+00   .130115016669E+00   .134163005840E+00   .138401710779E+00
   .142841124290E+00   .147491802475E+00   .152364898191E+00   .157472196329E+00   .162826151454E+00
   .168439927448E+00   .174327439850E+00   .180503400465E+00   .186983364828E+00   .193783782582E+00
   .200922050681E+00   .208416570161E+00   .216286805914E+00   .224553350521E+00   .233237991550E+00
   .242363783296E+00   .251955122523E+00   .262037829078E+00   .272639231179E+00   .283788255980E+00
   .295515525606E+00   .307853458954E+00   .320836379704E+00   .334500630828E+00   .348884696090E+00
   .364029328800E+00   .379977688433E+00   .396775485459E+00   .414471134974E+00   .433115919557E+00
   .452764161922E+00   .473473408160E+00   .495304621791E+00   .518322389680E+00   .542595140329E+00
   .568195375209E+00   .595199914122E+00   .623690155173E+00   .653752350630E+00   .685477898834E+00
   .718963654119E+00   .754312254945E+00   .791632471980E+00   .831039576244E+00   .872655730526E+00
   .916610402562E+00   .963040804090E+00   .101209235531E+01   .106391917711E+01   .111868461243E+01
   .117656177861E+01   .123773415216E+01   .130239618820E+01   .137075397625E+01   .144302593472E+01
   .151944354598E+01   .160025213461E+01   .168571169098E+01   .177609774301E+01   .187170227860E+01
   .197283472144E+01   .207982296365E+01   .219301445770E+01   .231277737157E+01   .243950180997E+01
   .257360110572E+01   .271551318482E+01   .286570200926E+01   .302465910161E+01   .319290515605E+01
   .337099173998E+01   .355950309131E+01   .375905801630E+01   .397031189301E+01   .419395878612E+01
   .443073367828E+01   .468141482455E+01   .494682623529E+01   .522784029453E+01   .552538052014E+01
   .584042447259E+01   .617400681977E+01   .652722256462E+01   .690123044424E+01   .729725650680E+01
   .771659787607E+01   .816062671058E+01   .863079436651E+01   .912863577327E+01   .965577403014E+01
   .102139252338E+02   .108049035457E+02   .114306265083E+02   .120931206211E+02   .127945271843E+02
   .135371084210E+02   .143232538877E+02   .151554871811E+02   .160364729531E+02   .169690242410E+02
   .179561101239E+02   .190008637122E+02   .201065904795E+02   .212767769455E+02   .225150997148E+02
   .238254348796E+02   .252118677913E+02   .266787032057E+02   .282304758039E+02   .298719610918E+02
   .316081866777E+02   .334444439258E+02   .353862999836E+02   .374396101739E+02   .396105307455E+02
   .419055319696E+02   .443314115657E+02   .468953084409E+02   .496047167162E+02   .524675000169E+02
   .554919059887E+02   .586865810095E+02   .620605850458E+02   .656234066089E+02   .693849777495E+02
   .733556890302E+02   .775464043971E+02   .819684758736E+02   .866337579780E+02   .915546217685E+02
   .967439683954E+02   .102215242038E+03   .107982442083E+03   .114060134397E+03   .120463461516E+03
   .127208151572E+03   .134310525764E+03   .141787504137E+03   .149656609450E+03   .157935968866E+03
   .166644313191E+03   .175800973371E+03   .185425873917E+03   .195539522925E+03   .206162998326E+03
   .217317929985E+03   .229026477228E+03   .241311301375E+03   .254195532823E+03   .267702732198E+03
   .281856845083E+03   .296682149797E+03   .312203197701E+03   .328444745462E+03   .345431678732E+03
   .363188926639E+03   .381741366540E+03   .401113718424E+03   .421330428409E+03   .442415540748E+03
   .464392557808E+03   .487284287484E+03   .511112677568E+03   .535898636616E+03   .561661840940E+03
   .588420527387E+03   .616191271692E+03   .644988752230E+03   .674825499185E+03   .705711629200E+03
   .737654565797E+03   .770658745967E+03   .804725313553E+03   .839851800254E+03   .876031795293E+03
   .913254605067E+03   .951504904362E+03   .990762381008E+03   .103100137618E+04   .107219052287E+04
   .111429238545E+04   .115726310350E+04   .120105204370E+04   .124560146359E+04   .129084619189E+04
   .133671332989E+04   .138312197938E+04   .142998300250E+04   .147719881949E+04   .152466325047E+04
   .157226140789E+04   .161986964607E+04   .166735557495E+04   .171457814473E+04   .176138780835E+04
   .180762676863E+04   .185312931642E+04   .189772226607E+04   .194122549371E+04   .198345258349E+04
   .202421158569E+04   .206330589018E+04   .210053521700E+04   .213569672495E+04   .216858623732E+04
   .219899958226E+04   .222673404372E+04   .225158991653E+04   .227337215748E+04   .229189212179E+04
   .230696937243E+04   .231843354711E+04   .232612626573E+04   .232990305882E+04   .232963529517E+04
   .232521208521E+04   .231654213438E+04   .230355551986E+04   .228620536203E+04   .226446936184E+04
   .223835117417E+04   .220788158781E+04   .217311948251E+04   .213415253506E+04   .209109764743E+04
   .204410107233E+04   .199333821376E+04   .193901308358E+04   .188135739848E+04   .182062930602E+04
   .175711173286E+04   .169111035384E+04   .162295118589E+04   .155297781738E+04   .148154829067E+04
   .140903166324E+04   .133580428167E+04   .126224581224E+04   .118873507723E+04   .111564580054E+04
   .104334219459E+04   .972174747616E+03   .902475983529E+03   .834556504451E+03   .768701335191E+03
   .705166689134E+03   .644177277570E+03   .585924312584E+03   .530564394027E+03   .478219504178E+03
   .428978305256E+03   .382898750697E+03   .340011596025E+03   .300323789355E+03   .263820298345E+03
   .230463266369E+03   .200188731532E+03   .172902844909E+03   .148480362653E+03   .126767390522E+03
   .107588271142E+03   .907544509077E+02   .760726014073E+02   .633504173410E+02   .524001100015E+02
   .430404409556E+02   .350980932873E+02   .284087987970E+02   .228183342126E+02   .181833598131E+02
   .143720450906E+02   .112644434187E+02   .875260471254E+01   .674043770626E+01   .514334865856E+01
   .388769191001E+01   .291007156436E+01   .215653420246E+01   .158169104272E+01   .114780500860E+01
   .823874180193E+00   .584738414580E+00   .410230804412E+00   .284390384711E+00   .194747360857E+00
   .131687353469E+00   .878969294607E-01   .578891464484E-01   .376050503557E-01   .240850449435E-01
   .152027566505E-01   .945336870830E-02
 pspotential
  -.106455265800E+03  -.106454371816E+03  -.106453504716E+03  -.106452663691E+03  -.106451847958E+03
  -.106451056756E+03  -.106450289347E+03  -.106449545015E+03  -.106448823067E+03  -.106448122828E+03
  -.106447443648E+03  -.106446784891E+03  -.106446145944E+03  -.106445526212E+03  -.106444925115E+03
  -.106444342094E+03  -.106443776604E+03  -.106443228120E+03  -.106442696128E+03  -.106442180134E+03
  -.106441679655E+03  -.106441194226E+03  -.106440723392E+03  -.106440266717E+03  -.106439823773E+03
  -.106439394147E+03  -.106438977440E+03  -.106438573262E+03  -.106438181236E+03  -.106437800996E+03
  -.106437432189E+03  -.106437074469E+03  -.106436727505E+03  -.106436390970E+03  -.106436064553E+03
  -.106435747949E+03  -.106435440861E+03  -.106435143004E+03  -.106434854100E+03  -.106434573879E+03
  -.106434302080E+03  -.106434038449E+03  -.106433782740E+03  -.106433534715E+03  -.106433294142E+03
  -.106433060796E+03  -.106432834460E+03  -.106432614923E+03  -.106432401979E+03  -.106432195430E+03
  -.106431995083E+03  -.106431800751E+03  -.106431612252E+03  -.106431429410E+03  -.106431252054E+03
  -.106431080018E+03  -.106430913143E+03  -.106430751270E+03  -.106430594250E+03  -.106430441936E+03
  -.106430294184E+03  -.106430150856E+03  -.106430011819E+03  -.106429876941E+03  -.106429746096E+03
  -.106429619163E+03  -.106429496021E+03  -.106429376554E+03  -.106429260652E+03  -.106429148204E+03
  -.106429039105E+03  -.106428933252E+03  -.106428830545E+03  -.106428730887E+03  -.106428634184E+03
  -.106428540345E+03  -.106428449281E+03  -.106428360904E+03  -.106428275132E+03  -.106428191883E+03
  -.106428111076E+03  -.106428032635E+03  -.106427956485E+03  -.106427882552E+03  -.106427810766E+03
  -.106427741056E+03  -.106427673355E+03  -.106427607597E+03  -.106427543719E+03  -.106427481656E+03
  -.106427421349E+03  -.106427362736E+03  -.106427305761E+03  -.106427250365E+03  -.106427196493E+03
  -.106427144089E+03  -.106427093101E+03  -.106427043476E+03  -.106426995161E+03  -.106426948106E+03
  -.106426902261E+03  -.106426857576E+03  -.106426814004E+03  -.106426771495E+03  -.106426730003E+03
  -.106426689480E+03  -.106426649880E+03  -.106426611156E+03  -.106426573262E+03  -.106426536152E+03
  -.106426499781E+03  -.106426464101E+03  -.106426429068E+03  -.106426394634E+03  -.106426360753E+03
  -.106426327378E+03  -.106426294462E+03  -.106426261956E+03  -.106426229812E+03  -.106426197980E+03
  -.106426166409E+03  -.106426135048E+03  -.106426103843E+03  -.106426072741E+03  -.106426041686E+03
  -.106426010620E+03  -.106425979485E+03  -.106425948218E+03  -.106425916758E+03  -.106425885038E+03
  -.106425852990E+03  -.106425820543E+03  -.106425787624E+03  -.106425754155E+03  -.106425720057E+03
  -.106425685244E+03  -.106425649630E+03  -.106425613121E+03  -.106425575620E+03  -.106425537027E+03
  -.106425497234E+03  -.106425456128E+03  -.106425413592E+03  -.106425369499E+03  -.106425323719E+03
  -.106425276112E+03  -.106425226531E+03  -.106425174822E+03  -.106425120820E+03  -.106425064352E+03
  -.106425005235E+03  -.106424943275E+03  -.106424878266E+03  -.106424809991E+03  -.106424738219E+03
  -.106424662705E+03  -.106424583191E+03  -.106424499402E+03  -.106424411047E+03  -.106424317818E+03
  -.106424219385E+03  -.106424115403E+03  -.106424005501E+03  -.106423889288E+03  -.106423766348E+03
  -.106423636241E+03  -.106423498497E+03  -.106423352619E+03  -.106423198079E+03  -.106423034316E+03
  -.106422860732E+03  -.106422676697E+03  -.106422481536E+03  -.106422274535E+03  -.106422054937E+03
  -.106421821933E+03  -.106421574669E+03  -.106421312233E+03  -.106421033658E+03  -.106420737917E+03
  -.106420423919E+03  -.106420090501E+03  -.106419736432E+03  -.106419360401E+03  -.106418961016E+03
  -.106418536797E+03  -.106418086171E+03  -.106417607468E+03  -.106417098910E+03  -.106416558610E+03
  -.106415984562E+03  -.106415374635E+03  -.106414726561E+03  -.106414037933E+03  -.106413306191E+03
  -.106412528615E+03  -.106411702313E+03  -.106410824214E+03  -.106409891051E+03  -.106408899354E+03
  -.106407845433E+03  -.106406725368E+03  -.106405534993E+03  -.106404269878E+03  -.106402925319E+03
  -.106401496312E+03  -.106399977541E+03  -.106398363358E+03  -.106396647757E+03  -.106394824358E+03
  -.106392886378E+03  -.106390826612E+03  -.106388637400E+03  -.106386310602E+03  -.106383837569E+03
  -.106381209110E+03  -.106378415456E+03  -.106375446228E+03  -.106372290396E+03  -.106368936240E+03
  -.106365371305E+03  -.106361582359E+03  -.106357555341E+03  -.106353275312E+03  -.106348726398E+03
  -.106343891735E+03  -.106338753406E+03  -.106333292377E+03  -.106327488425E+03  -.106321320069E+03
  -.106314764489E+03  -.106307797447E+03  -.106300393197E+03  -.106292524392E+03  -.106284161990E+03
  -.106275275145E+03  -.106265831104E+03  -.106255795084E+03  -.106245130152E+03  -.106233797096E+03
  -.106221754286E+03  -.106208957525E+03  -.106195359903E+03  -.106180911627E+03  -.106165559852E+03
  -.106149248500E+03  -.106131918067E+03  -.106113505422E+03  -.106093943594E+03  -.106073161548E+03
  -.106051083944E+03  -.106027630896E+03  -.106002717701E+03  -.105976254569E+03  -.105948146332E+03
  -.105918292138E+03  -.105886585131E+03  -.105852912117E+03  -.105817153212E+03  -.105779181469E+03
  -.105738862498E+03  -.105696054053E+03  -.105650605611E+03  -.105602357929E+03  -.105551142575E+03
  -.105496781442E+03  -.105439086237E+03  -.105377857946E+03  -.105312886269E+03  -.105243949031E+03
  -.105170811563E+03  -.105093226043E+03  -.105010930807E+03  -.104923649617E+03  -.104831090880E+03
  -.104732946827E+03  -.104628892621E+03  -.104518585419E+03  -.104401663349E+03  -.104277744424E+03
  -.104146425359E+03  -.104007280303E+03  -.103859859475E+03  -.103703687686E+03  -.103538262773E+03
  -.103363053917E+03  -.103177499884E+03  -.102981007186E+03  -.102772948213E+03  -.102552659371E+03
  -.102319439311E+03  -.102072547329E+03  -.101811202079E+03  -.101534580754E+03  -.101241818940E+03
  -.100932011391E+03  -.100604214002E+03  -.100257447322E+03  -.998907019350E+02  -.995029460926E+02
  -.990931359308E+02  -.986602285648E+02  -.982031982611E+02  -.977210557282E+02  -.972128703619E+02
  -.966777950135E+02  -.961150925380E+02  -.955241630360E+02  -.949045703672E+02  -.942560662127E+02
  -.935786097511E+02  -.928723809220E+02  -.921377853161E+02  -.913754489634E+02  -.905862016826E+02
  -.897710481657E+02  -.889311265601E+02  -.880676549190E+02  -.871818664833E+02  -.862749353370E+02
  -.853478945798E+02  -.844015498812E+02  -.834363922279E+02  -.824525149645E+02  -.814495419356E+02
  -.804265756856E+02  -.793821773395E+02  -.783143932711E+02  -.772084941674E+02  -.761164814644E+02
  -.750111727854E+02  -.738685641877E+02  -.726911930086E+02  -.715228356567E+02  -.703252371373E+02
  -.690945353045E+02  -.678379967399E+02
 core charge-density (pseudized)
   .000000000000E+00   .000000000000E+00   .000000000000E+00   .000000000000E+00   .000000000000E+00
   .000000000000E+00   .000000000000E+00   .000000000000E+00   .000000000000E+00   .000000000000E+00
   .000000000000E+00   .000000000000E+00   .000000000000E+00   .000000000000E+00   .000000000000E+00
   .000000000000E+00   .000000000000E+00   .000000000000E+00   .000000000000E+00   .000000000000E+00
   .000000000000E+00   .000000000000E+00   .000000000000E+00   .000000000000E+00   .000000000000E+00
   .000000000000E+00   .000000000000E+00   .000000000000E+00   .000000000000E+00   .000000000000E+00
   .000000000000E+00   .000000000000E+00   .000000000000E+00   .000000000000E+00   .000000000000E+00
   .000000000000E+00   .000000000000E+00   .000000000000E+00   .000000000000E+00   .000000000000E+00
   .000000000000E+00   .000000000000E+00   .000000000000E+00   .000000000000E+00   .000000000000E+00
   .000000000000E+00   .000000000000E+00   .000000000000E+00   .000000000000E+00   .000000000000E+00
   .000000000000E+00   .000000000000E+00   .000000000000E+00   .000000000000E+00   .000000000000E+00
   .000000000000E+00   .000000000000E+00   .000000000000E+00   .000000000000E+00   .000000000000E+00
   .000000000000E+00   .000000000000E+00   .000000000000E+00   .000000000000E+00   .000000000000E+00
   .000000000000E+00   .000000000000E+00   .000000000000E+00   .000000000000E+00   .000000000000E+00
   .000000000000E+00   .000000000000E+00   .000000000000E+00   .000000000000E+00   .000000000000E+00
   .000000000000E+00   .000000000000E+00   .000000000000E+00   .000000000000E+00   .000000000000E+00
   .000000000000E+00   .000000000000E+00   .000000000000E+00   .000000000000E+00   .000000000000E+00
   .000000000000E+00   .000000000000E+00   .000000000000E+00   .000000000000E+00   .000000000000E+00
   .000000000000E+00   .000000000000E+00   .000000000000E+00   .000000000000E+00   .000000000000E+00
   .000000000000E+00   .000000000000E+00   .000000000000E+00   .000000000000E+00   .000000000000E+00
   .000000000000E+00   .000000000000E+00   .000000000000E+00   .000000000000E+00   .000000000000E+00
   .000000000000E+00   .000000000000E+00   .000000000000E+00   .000000000000E+00   .000000000000E+00
   .000000000000E+00   .000000000000E+00   .000000000000E+00   .000000000000E+00   .000000000000E+00
   .000000000000E+00   .000000000000E+00   .000000000000E+00   .000000000000E+00   .000000000000E+00
   .000000000000E+00   .000000000000E+00   .000000000000E+00   .000000000000E+00   .000000000000E+00
   .000000000000E+00   .000000000000E+00   .000000000000E+00   .000000000000E+00   .000000000000E+00
   .000000000000E+00   .000000000000E+00   .000000000000E+00   .000000000000E+00   .000000000000E+00
   .000000000000E+00   .000000000000E+00   .000000000000E+00   .000000000000E+00   .000000000000E+00
   .000000000000E+00   .000000000000E+00   .000000000000E+00   .000000000000E+00   .000000000000E+00
   .000000000000E+00   .000000000000E+00   .000000000000E+00   .000000000000E+00   .000000000000E+00
   .000000000000E+00   .000000000000E+00   .000000000000E+00   .000000000000E+00   .000000000000E+00
   .000000000000E+00   .000000000000E+00   .000000000000E+00   .000000000000E+00   .000000000000E+00
   .000000000000E+00   .000000000000E+00   .000000000000E+00   .000000000000E+00   .000000000000E+00
   .000000000000E+00   .000000000000E+00   .000000000000E+00   .000000000000E+00   .000000000000E+00
   .000000000000E+00   .000000000000E+00   .000000000000E+00   .000000000000E+00   .000000000000E+00
   .000000000000E+00   .000000000000E+00   .000000000000E+00   .000000000000E+00   .000000000000E+00
   .000000000000E+00   .000000000000E+00   .000000000000E+00   .000000000000E+00   .000000000000E+00
   .000000000000E+00   .000000000000E+00   .000000000000E+00   .000000000000E+00   .000000000000E+00
   .000000000000E+00   .000000000000E+00   .000000000000E+00   .000000000000E+00   .000000000000E+00
   .000000000000E+00   .000000000000E+00   .000000000000E+00   .000000000000E+00   .000000000000E+00
   .000000000000E+00   .000000000000E+00   .000000000000E+00   .000000000000E+00   .000000000000E+00
   .000000000000E+00   .000000000000E+00   .000000000000E+00   .000000000000E+00   .000000000000E+00
   .000000000000E+00   .000000000000E+00   .000000000000E+00   .000000000000E+00   .000000000000E+00
   .000000000000E+00   .000000000000E+00   .000000000000E+00   .000000000000E+00   .000000000000E+00
   .000000000000E+00   .000000000000E+00   .000000000000E+00   .000000000000E+00   .000000000000E+00
   .000000000000E+00   .000000000000E+00   .000000000000E+00   .000000000000E+00   .000000000000E+00
   .000000000000E+00   .000000000000E+00   .000000000000E+00   .000000000000E+00   .000000000000E+00
   .000000000000E+00   .000000000000E+00   .000000000000E+00   .000000000000E+00   .000000000000E+00
   .000000000000E+00   .000000000000E+00   .000000000000E+00   .000000000000E+00   .000000000000E+00
   .000000000000E+00   .000000000000E+00   .000000000000E+00   .000000000000E+00   .000000000000E+00
   .000000000000E+00   .000000000000E+00   .000000000000E+00   .000000000000E+00   .000000000000E+00
   .000000000000E+00   .000000000000E+00   .000000000000E+00   .000000000000E+00   .000000000000E+00
   .000000000000E+00   .000000000000E+00   .000000000000E+00   .000000000000E+00   .000000000000E+00
   .000000000000E+00   .000000000000E+00   .000000000000E+00   .000000000000E+00   .000000000000E+00
   .000000000000E+00   .000000000000E+00   .000000000000E+00   .000000000000E+00   .000000000000E+00
   .000000000000E+00   .000000000000E+00   .000000000000E+00   .000000000000E+00   .000000000000E+00
   .000000000000E+00   .000000000000E+00   .000000000000E+00   .000000000000E+00   .000000000000E+00
   .000000000000E+00   .000000000000E+00   .000000000000E+00   .000000000000E+00   .000000000000E+00
   .000000000000E+00   .000000000000E+00   .000000000000E+00   .000000000000E+00   .000000000000E+00
   .000000000000E+00   .000000000000E+00   .000000000000E+00   .000000000000E+00   .000000000000E+00
   .000000000000E+00   .000000000000E+00   .000000000000E+00   .000000000000E+00   .000000000000E+00
   .000000000000E+00   .000000000000E+00   .000000000000E+00   .000000000000E+00   .000000000000E+00
   .000000000000E+00   .000000000000E+00   .000000000000E+00   .000000000000E+00   .000000000000E+00
   .000000000000E+00   .000000000000E+00   .000000000000E+00   .000000000000E+00   .000000000000E+00
   .000000000000E+00   .000000000000E+00   .000000000000E+00   .000000000000E+00   .000000000000E+00
   .000000000000E+00   .000000000000E+00   .000000000000E+00   .000000000000E+00   .000000000000E+00
   .000000000000E+00   .000000000000E+00   .000000000000E+00   .000000000000E+00   .000000000000E+00
   .000000000000E+00   .000000000000E+00
 pseudo wavefunction
   .121052324510E-03   .124805588816E-03   .128675224228E-03   .132664838866E-03   .136778152724E-03
   .141019001134E-03   .145391338342E-03   .149899241200E-03   .154546912961E-03   .159338687203E-03
   .164279031867E-03   .169372553424E-03   .174624001169E-03   .180038271653E-03   .185620413244E-03
   .191375630836E-03   .197309290704E-03   .203426925503E-03   .209734239432E-03   .216237113551E-03
   .222941611262E-03   .229853983965E-03   .236980676887E-03   .244328335092E-03   .251903809673E-03
   .259714164147E-03   .267766681036E-03   .276068868657E-03   .284628468127E-03   .293453460577E-03
   .302552074596E-03   .311932793903E-03   .321604365255E-03   .331575806608E-03   .341856415520E-03
   .352455777823E-03   .363383776561E-03   .374650601203E-03   .386266757146E-03   .398243075510E-03
   .410590723238E-03   .423321213505E-03   .436446416455E-03   .449978570271E-03   .463930292582E-03
   .478314592231E-03   .493144881404E-03   .508434988134E-03   .524199169195E-03   .540452123399E-03
   .557209005294E-03   .574485439302E-03   .592297534281E-03   .610661898551E-03   .629595655373E-03
   .649116458921E-03   .669242510741E-03   .689992576719E-03   .711386004584E-03   .733442741942E-03
   .756183354882E-03   .779629047145E-03   .803801679901E-03   .828723792125E-03   .854418621621E-03
   .880910126681E-03   .908223008428E-03   .936382733849E-03   .965415559534E-03   .995348556165E-03
   .102620963375E-02   .105802756765E-02   .109083202541E-02   .112465359441E-02   .115952381041E-02
   .119547518692E-02   .123254124554E-02   .127075654720E-02   .131015672439E-02   .135077851440E-02
   .139265979354E-02   .143583961247E-02   .148035823261E-02   .152625716370E-02   .157357920245E-02
   .162236847248E-02   .167267046548E-02   .172453208356E-02   .177800168303E-02   .183312911947E-02
   .188996579420E-02   .194856470224E-02   .200898048166E-02   .207126946458E-02   .213548972965E-02
   .220170115620E-02   .226996548009E-02   .234034635125E-02   .241290939301E-02   .248772226330E-02
   .256485471770E-02   .264437867450E-02   .272636828172E-02   .281089998625E-02   .289805260509E-02
   .298790739888E-02   .308054814757E-02   .317606122860E-02   .327453569736E-02   .337606337021E-02
   .348073891012E-02   .358865991482E-02   .369992700786E-02   .381464393232E-02   .393291764756E-02
   .405485842889E-02   .418057997033E-02   .431019949062E-02   .444383784240E-02   .458161962490E-02
   .472367330000E-02   .487013131196E-02   .502113021085E-02   .517681077977E-02   .533731816603E-02
   .550280201637E-02   .567341661641E-02   .584932103437E-02   .603067926924E-02   .621766040359E-02
   .641043876100E-02   .660919406849E-02   .681411162386E-02   .702538246826E-02   .724320356412E-02
   .746777797850E-02   .769931507218E-02   .793803069454E-02   .818414738453E-02   .843789457774E-02
   .869950881997E-02   .896923398734E-02   .924732151315E-02   .953403062187E-02   .982962857020E-02
   .101343908956E-01   .104486016727E-01   .107725537769E-01   .111065491575E-01   .114508991172E-01
   .118059246024E-01   .121719565005E-01   .125493359479E-01   .129384146463E-01   .133395551893E-01
   .137531313988E-01   .141795286721E-01   .146191443389E-01   .150723880302E-01   .155396820573E-01
   .160214618035E-01   .165181761272E-01   .170302877774E-01   .175582738216E-01   .181026260872E-01
   .186638516162E-01   .192424731332E-01   .198390295283E-01   .204540763545E-01   .210881863391E-01
   .217419499126E-01   .224159757510E-01   .231108913370E-01   .238273435357E-01   .245659991892E-01
   .253275457284E-01   .261126918025E-01   .269221679286E-01   .277567271587E-01   .286171457681E-01
   .295042239634E-01   .304187866110E-01   .313616839872E-01   .323337925507E-01   .333360157366E-01
   .343692847737E-01   .354345595261E-01   .365328293572E-01   .376651140203E-01   .388324645728E-01
   .400359643169E-01   .412767297665E-01   .425559116408E-01   .438746958854E-01   .452343047211E-01
   .466359977212E-01   .480810729174E-01   .495708679356E-01   .511067611610E-01   .526901729330E-01
   .543225667715E-01   .560054506335E-01   .577403782008E-01   .595289501989E-01   .613728157481E-01
   .632736737450E-01   .652332742765E-01   .672534200650E-01   .693359679442E-01   .714828303671E-01
   .736959769429E-01   .759774360049E-01   .783292962072E-01   .807537081490E-01   .832528860266E-01
   .858291093106E-01   .884847244467E-01   .912221465794E-01   .940438612944E-01   .969524263790E-01
   .999504735966E-01   .103040710471E+00   .106225922082E+00   .109508972853E+00   .112892808354E+00
   .116380457078E+00   .119975032217E+00   .123679733410E+00   .127497848466E+00   .131432755049E+00
   .135487922315E+00   .139666912491E+00   .143973382387E+00   .148411084826E+00   .152983869971E+00
   .157695686545E+00   .162550582918E+00   .167552708043E+00   .172706312216E+00   .178015747650E+00
   .183485468814E+00   .189120032532E+00   .194924097791E+00   .200902425238E+00   .207059876319E+00
   .213401412022E+00   .219932091181E+00   .226657068280E+00   .233581590726E+00   .240710995507E+00
   .248050705184E+00   .255606223149E+00   .263383128070E+00   .271387067434E+00   .279623750111E+00
   .288098937841E+00   .296818435529E+00   .305788080245E+00   .315013728810E+00   .324501243831E+00
   .334256478046E+00   .344285256835E+00   .354593358731E+00   .365186493763E+00   .376070279443E+00
   .387250214214E+00   .398731648148E+00   .410519750679E+00   .422619475139E+00   .435035519877E+00
   .447772285693E+00   .460833829349E+00   .474223812884E+00   .487945448468E+00   .502001438532E+00
   .516393910884E+00   .531124348571E+00   .546193514201E+00   .561601368496E+00   .577346982847E+00
   .593428445668E+00   .609842762392E+00   .626585748984E+00   .643651918930E+00   .661034363690E+00
   .678724626742E+00   .696712571408E+00   .714986242788E+00   .733531724292E+00   .752332989392E+00
   .771371749455E+00   .790627298695E+00   .810076357567E+00   .829692916186E+00   .849448079667E+00
   .869309917625E+00   .889243320424E+00   .909209865158E+00   .929167694744E+00   .949071413897E+00
   .968872006174E+00   .988516776605E+00   .100794932478E+01   .102710955349E+01   .104593371802E+01
   .106435452146E+01   .108230126065E+01   .109970002722E+01   .111647396719E+01   .113254360088E+01
   .114782720355E+01   .116224124402E+01   .117570087540E+01   .118812046806E+01   .119941416901E+01
   .120949646640E+01   .121828272955E+01   .122568968673E+01   .123163579299E+01   .123604142967E+01
   .123882886587E+01   .123992190088E+01   .123924509600E+01   .123672249502E+01   .123227572715E+01
   .122582138576E+01   .121726758276E+01   .120650959616E+01   .119342455898E+01   .117785650617E+01
   .115980407378E+01   .113935785774E+01   .111664160802E+01   .109179088500E+01   .106495196327E+01
   .103628065227E+01   .100594104726E+01
 ae wavefunction
  -.597520737029E-03  -.616014834872E-03  -.635081121050E-03  -.654737284352E-03  -.675001559522E-03
  -.695892744057E-03  -.717430215506E-03  -.739633949310E-03  -.762524537174E-03  -.786123206011E-03
  -.810451837452E-03  -.835532987960E-03  -.861389909552E-03  -.888046571153E-03  -.915527680598E-03
  -.943858707309E-03  -.973065905652E-03  -.100317633901E-02  -.103421790460E-02  -.106621935899E-02
  -.109921034448E-02  -.113322141619E-02  -.116828407002E-02  -.120443077147E-02  -.124169498526E-02
  -.128011120594E-02  -.131971498934E-02  -.136054298500E-02  -.140263296964E-02  -.144602388151E-02
  -.149075585586E-02  -.153687026151E-02  -.158440973839E-02  -.163341823634E-02  -.168394105501E-02
  -.173602488491E-02  -.178971784981E-02  -.184506955030E-02  -.190213110868E-02  -.196095521519E-02
  -.202159617565E-02  -.208410996044E-02  -.214855425501E-02  -.221498851184E-02  -.228347400396E-02
  -.235407388005E-02  -.242685322113E-02  -.250187909902E-02  -.257922063635E-02  -.265894906854E-02
  -.274113780742E-02  -.282586250679E-02  -.291320112992E-02  -.300323401895E-02  -.309604396638E-02
  -.319171628853E-02  -.329033890128E-02  -.339200239787E-02  -.349680012897E-02  -.360482828512E-02
  -.371618598146E-02  -.383097534491E-02  -.394930160383E-02  -.407127318028E-02  -.419700178481E-02
  -.432660251403E-02  -.446019395083E-02  -.459789826753E-02  -.473984133181E-02  -.488615281566E-02
  -.503696630737E-02  -.519241942658E-02  -.535265394253E-02  -.551781589555E-02  -.568805572191E-02
  -.586352838201E-02  -.604439349209E-02  -.623081545952E-02  -.642296362162E-02  -.662101238832E-02
  -.682514138853E-02  -.703553562035E-02  -.725238560533E-02  -.747588754666E-02  -.770624349147E-02
  -.794366149740E-02  -.818835580325E-02  -.844054700419E-02  -.870046223115E-02  -.896833533485E-02
  -.924440707431E-02  -.952892531003E-02  -.982214520178E-02  -.101243294112E-01  -.104357483093E-01
  -.107566801887E-01  -.110874114808E-01  -.114282369781E-01  -.117794600613E-01  -.121413929319E-01
  -.125143568493E-01  -.128986823738E-01  -.132947096139E-01  -.137027884795E-01  -.141232789401E-01
  -.145565512880E-01  -.150029864066E-01  -.154629760445E-01  -.159369230941E-01  -.164252418753E-01
  -.169283584247E-01  -.174467107893E-01  -.179807493252E-01  -.185309370012E-01  -.190977497066E-01
  -.196816765642E-01  -.202832202471E-01  -.209028972994E-01  -.215412384616E-01  -.221987889989E-01
  -.228761090336E-01  -.235737738797E-01  -.242923743814E-01  -.250325172529E-01  -.257948254211E-01
  -.265799383690E-01  -.273885124812E-01  -.282212213885E-01  -.290787563142E-01  -.299618264178E-01
  -.308711591389E-01  -.318075005381E-01  -.327716156348E-01  -.337642887420E-01  -.347863237951E-01
  -.358385446760E-01  -.369217955294E-01  -.380369410714E-01  -.391848668884E-01  -.403664797251E-01
  -.415827077607E-01  -.428345008702E-01  -.441228308711E-01  -.454486917519E-01  -.468130998811E-01
  -.482170941953E-01  -.496617363628E-01  -.511481109214E-01  -.526773253869E-01  -.542505103313E-01
  -.558688194249E-01  -.575334294425E-01  -.592455402279E-01  -.610063746141E-01  -.628171782964E-01
  -.646792196524E-01  -.665937895071E-01  -.685622008361E-01  -.705857884052E-01  -.726659083384E-01
  -.748039376113E-01  -.770012734632E-01  -.792593327228E-01  -.815795510400E-01  -.839633820196E-01
  -.864122962467E-01  -.889277802005E-01  -.915113350453E-01  -.941644752932E-01  -.968887273285E-01
  -.996856277863E-01  -.102556721775E+00  -.105503560933E+00  -.108527701313E+00  -.111630701071E+00
  -.114814117975E+00  -.118079506685E+00  -.121428415828E+00  -.124862384832E+00  -.128382940516E+00
  -.131991593419E+00  -.135689833858E+00  -.139479127696E+00  -.143360911804E+00  -.147336589214E+00
  -.151407523923E+00  -.155575035361E+00  -.159840392479E+00  -.164204807465E+00  -.168669429044E+00
  -.173235335369E+00  -.177903526470E+00  -.182674916242E+00  -.187550323970E+00  -.192530465345E+00
  -.197615942984E+00  -.202807236404E+00  -.208104691461E+00  -.213508509213E+00  -.219018734201E+00
  -.224635242131E+00  -.230357726938E+00  -.236185687210E+00  -.242118411975E+00  -.248154965819E+00
  -.254294173335E+00  -.260534602895E+00  -.266874549721E+00  -.273312018268E+00  -.279844703909E+00
  -.286469973921E+00  -.293184847772E+00  -.299985976721E+00  -.306869622745E+00  -.313831636798E+00
  -.320867436428E+00  -.327971982785E+00  -.335139757031E+00  -.342364736213E+00  -.349640368627E+00
  -.356959548737E+00  -.364314591695E+00  -.371697207546E+00  -.379098475184E+00  -.386508816155E+00
  -.393917968397E+00  -.401314960036E+00  -.408688083349E+00  -.416024869035E+00  -.423312060933E+00
  -.430535591355E+00  -.437680557200E+00  -.444731197039E+00  -.451670869384E+00  -.458482032335E+00
  -.465146224877E+00  -.471644050039E+00  -.477955160211E+00  -.484058244892E+00  -.489931021166E+00
  -.495550227230E+00  -.500891619310E+00  -.505929972305E+00  -.510639084533E+00  -.514991786958E+00
  -.518959957286E+00  -.522514539352E+00  -.525625568199E+00  -.528262201296E+00  -.530392756321E+00
  -.531984755958E+00  -.533004980157E+00  -.533419526305E+00  -.533193877757E+00  -.532292981162E+00
  -.530681333023E+00  -.528323075905E+00  -.525182104684E+00  -.521222183211E+00  -.516407071726E+00
  -.510700665319E+00  -.504067143693E+00  -.496471132405E+00  -.487877875730E+00  -.478253421166E+00
  -.467564815560E+00  -.455780312685E+00  -.442869592018E+00  -.428803988313E+00  -.413556731446E+00
  -.397103195830E+00  -.379421158553E+00  -.360491065208E+00  -.340296302214E+00  -.318823474239E+00
  -.296062685183E+00  -.272007821000E+00  -.246656832508E+00  -.220012016240E+00  -.192080291270E+00
  -.162873469927E+00  -.132408520268E+00  -.100707818152E+00  -.677993867027E-01  -.337171208218E-01
   .149900587593E-02   .378027548766E-01   .751414614371E-01   .113455903761E+00   .152680210710E+00
   .192741819571E+00   .233561500197E+00   .275053467550E+00   .317125609833E+00   .359679859700E+00
   .402612723554E+00   .445815947236E+00   .489177227382E+00   .532580786825E+00   .575907566566E+00
   .619034824821E+00   .661835133970E+00   .704175088578E+00   .745914315462E+00   .786905395754E+00
   .826994971469E+00   .866025783091E+00   .903839034545E+00   .940276532166E+00   .975182362464E+00
   .100840416780E+01   .103979419983E+01   .106921031168E+01   .109651698096E+01   .112158639312E+01
   .114429957418E+01   .116454754177E+01   .118223243614E+01   .119726859418E+01   .120958353433E+01
   .121911882731E+01   .122583083392E+01   .122969129705E+01   .123068777947E+01   .122882394266E+01
   .122411966470E+01   .121661099761E+01   .120634996663E+01   .119340421583E+01   .117785650617E+01
   .115980407378E+01   .113935785774E+01   .111664160802E+01   .109179088500E+01   .106495196327E+01
   .103628065227E+01   .100594104726E+01
 pseudo wavefunction
   .749153966334E-05   .772381713833E-05   .796329644722E-05   .821020088506E-05   .846476067022E-05
   .872721315907E-05   .899780306726E-05   .927678269795E-05   .956441217700E-05   .986095969559E-05
   .101667017602E-04   .104819234506E-04   .108069186852E-04   .111419904960E-04   .114874513100E-04
   .118436232415E-04   .122108383919E-04   .125894391595E-04   .129797785587E-04   .133822205493E-04
   .137971403759E-04   .142249249173E-04   .146659730479E-04   .151206960093E-04   .155895177936E-04
   .160728755389E-04   .165712199370E-04   .170850156536E-04   .176147417612E-04   .181608921864E-04
   .187239761697E-04   .193045187413E-04   .199030612096E-04   .205201616666E-04   .211563955081E-04
   .218123559703E-04   .224886546825E-04   .231859222381E-04   .239048087820E-04   .246459846169E-04
   .254101408286E-04   .261979899301E-04   .270102665259E-04   .278477279973E-04   .287111552082E-04
   .296013532334E-04   .305191521091E-04   .314654076072E-04   .324410020326E-04   .334468450465E-04
   .344838745142E-04   .355530573796E-04   .366553905671E-04   .377919019105E-04   .389636511120E-04
   .401717307298E-04   .414172671973E-04   .427014218727E-04   .440253921224E-04   .453904124372E-04
   .467977555834E-04   .482487337894E-04   .497446999692E-04   .512870489841E-04   .528772189429E-04
   .545166925430E-04   .562069984526E-04   .579497127362E-04   .597464603242E-04   .615989165274E-04
   .635088085997E-04   .654779173479E-04   .675080787925E-04   .696011858792E-04   .717591902442E-04
   .739841040332E-04   .762780017779E-04   .786430223302E-04   .810813708558E-04   .835953208906E-04
   .861872164603E-04   .888594742657E-04   .916145859356E-04   .944551203501E-04   .973837260355E-04
   .100403133633E-03   .103516158446E-03   .106725703061E-03   .110034760059E-03   .113446414800E-03
   .116963848304E-03   .120590340212E-03   .124329271847E-03   .128184129363E-03   .132158506998E-03
   .136256110421E-03   .140480760189E-03   .144836395307E-03   .149327076901E-03   .153956992000E-03
   .158730457444E-03   .163651923901E-03   .168725980022E-03   .173957356712E-03   .179350931544E-03
   .184911733300E-03   .190644946661E-03   .196555917039E-03   .202650155553E-03   .208933344172E-03
   .215411341003E-03   .222090185754E-03   .228976105359E-03   .236075519779E-03   .243395047985E-03
   .250941514122E-03   .258721953868E-03   .266743620986E-03   .275013994082E-03   .283540783567E-03
   .292331938842E-03   .301395655696E-03   .310740383941E-03   .320374835278E-03   .330307991406E-03
   .340549112385E-03   .351107745255E-03   .361993732919E-03   .373217223305E-03   .384788678806E-03
   .396718886016E-03   .409018965761E-03   .421700383446E-03   .434774959710E-03   .448254881425E-03
   .462152713016E-03   .476481408146E-03   .491254321747E-03   .506485222429E-03   .522188305272E-03
   .538378205000E-03   .555070009572E-03   .572279274183E-03   .590022035697E-03   .608314827520E-03
   .627174694929E-03   .646619210875E-03   .666666492260E-03   .687335216717E-03   .708644639903E-03
   .730614613314E-03   .753265602647E-03   .776618706718E-03   .800695676956E-03   .825518937487E-03
   .851111605826E-03   .877497514199E-03   .904701231500E-03   .932748085921E-03   .961664188254E-03
   .991476455895E-03   .102221263757E-02   .105390133881E-02   .108657204815E-02   .112025516414E-02
   .115498202318E-02   .119078492810E-02   .122769717767E-02   .126575309691E-02   .130498806835E-02
   .134543856412E-02   .138714217909E-02   .143013766484E-02   .147446496470E-02   .152016524975E-02
   .156728095587E-02   .161585582184E-02   .166593492849E-02   .171756473894E-02   .177079314004E-02
   .182566948483E-02   .188224463625E-02   .194057101199E-02   .200070263058E-02   .206269515869E-02
   .212660595962E-02   .219249414316E-02   .226042061662E-02   .233044813717E-02   .240264136555E-02
   .247706692101E-02   .255379343757E-02   .263289162165E-02   .271443431098E-02   .279849653486E-02
   .288515557564E-02   .297449103161E-02   .306658488112E-02   .316152154787E-02   .325938796757E-02
   .336027365564E-02   .346427077614E-02   .357147421169E-02   .368198163445E-02   .379589357801E-02
   .391331351007E-02   .403434790594E-02   .415910632249E-02   .428770147268E-02   .442024930032E-02
   .455686905494E-02   .469768336658E-02   .484281832021E-02   .499240352958E-02   .514657221014E-02
   .530546125076E-02   .546921128382E-02   .563796675327E-02   .581187598023E-02   .599109122560E-02
   .617576874901E-02   .636606886367E-02   .656215598618E-02   .676419868077E-02   .697236969677E-02
   .718684599872E-02   .740780878775E-02   .763544351321E-02   .786993987324E-02   .811149180272E-02
   .836029744722E-02   .861655912101E-02   .888048324732E-02   .915228027866E-02   .943216459493E-02
   .972035437665E-02   .100170714506E-01   .103225411047E-01   .106369918686E-01   .109606552563E-01
   .112937654671E-01   .116365590391E-01   .119892744520E-01   .123521516718E-01   .127254316337E-01
   .131093556539E-01   .135041647654E-01   .139100989685E-01   .143273963880E-01   .147562923274E-01
   .151970182087E-01   .156498003886E-01   .161148588359E-01   .165924056589E-01   .170826434653E-01
   .175857635404E-01   .181019438244E-01   .186313466694E-01   .191741163544E-01   .197303763356E-01
   .203002262054E-01   .208837383323E-01   .214809541521E-01   .220918800752E-01   .227164829750E-01
   .233546852175E-01   .240063591882E-01   .246713212690E-01   .253493252149E-01   .260400548731E-01
   .267431161845E-01   .274580284010E-01   .281842144471E-01   .289209903469E-01   .296675536323E-01
   .304229706408E-01   .311861626020E-01   .319558904069E-01   .327307379410E-01   .335090938577E-01
   .342891316546E-01   .350687879062E-01   .358457384962E-01   .366173726801E-01   .373807647954E-01
   .381326434266E-01   .388693578164E-01   .395868413023E-01   .402805715446E-01   .409455272961E-01
   .415761414522E-01   .421662501060E-01   .427090373221E-01   .431969753302E-01   .436217598326E-01
   .439742401142E-01   .442443436401E-01   .444209948310E-01   .444920277162E-01   .444440921827E-01
   .442625535694E-01   .439313854003E-01   .434330551140E-01   .427484027319E-01   .418565125243E-01
   .407345778846E-01   .393577598199E-01   .376990397196E-01   .357290673897E-01   .334160057514E-01
   .307253741230E-01   .276198926529E-01   .240593312867E-01   .200003676562E-01   .153964595246E-01
   .101977389494E-01   .435093719214E-02  -.220064832746E-02  -.951713100264E-02  -.176619386281E-01
  -.267016224118E-01  -.367055456440E-01  -.477454209460E-01  -.598946589318E-01  -.732274842538E-01
  -.878177674327E-01  -.103737512745E+00  -.121054934038E+00  -.139832042132E+00  -.160091921596E+00
  -.181957508501E+00  -.205476527333E+00  -.230732902009E+00  -.257815937118E+00  -.286821237265E+00
  -.317851796637E+00  -.351019286889E+00
 ae wavefunction
  -.233161820193E-04  -.240378502020E-04  -.247818460439E-04  -.255488597881E-04  -.263396029812E-04
  -.271548091294E-04  -.279952343735E-04  -.288616581846E-04  -.297548840814E-04  -.306757403692E-04
  -.316250809016E-04  -.326037858646E-04  -.336127625859E-04  -.346529463681E-04  -.357253013467E-04
  -.368308213754E-04  -.379705309378E-04  -.391454860860E-04  -.403567754093E-04  -.416055210306E-04
  -.428928796345E-04  -.442200435254E-04  -.455882417183E-04  -.469987410623E-04  -.484528473984E-04
  -.499519067518E-04  -.514973065608E-04  -.530904769420E-04  -.547328919944E-04  -.564260711422E-04
  -.581715805184E-04  -.599710343899E-04  -.618260966250E-04  -.637384822053E-04  -.657099587833E-04
  -.677423482853E-04  -.698375285641E-04  -.719974350991E-04  -.742240627489E-04  -.765194675546E-04
  -.788857685980E-04  -.813251499143E-04  -.838398624616E-04  -.864322261493E-04  -.891046319258E-04
  -.918595439285E-04  -.946995016970E-04  -.976271224513E-04  -.100645103438E-03  -.103756224343E-03
  -.106963349778E-03  -.110269431839E-03  -.113677512736E-03  -.117190727505E-03  -.120812306794E-03
  -.124545579733E-03  -.128393976885E-03  -.132361033285E-03  -.136450391565E-03  -.140665805164E-03
  -.145011141642E-03  -.149490386076E-03  -.154107644561E-03  -.158867147809E-03  -.163773254845E-03
  -.168830456819E-03  -.174043380910E-03  -.179416794355E-03  -.184955608578E-03  -.190664883447E-03
  -.196549831633E-03  -.202615823108E-03  -.208868389754E-03  -.215313230103E-03  -.221956214206E-03
  -.228803388637E-03  -.235860981630E-03  -.243135408355E-03  -.250633276334E-03  -.258361391007E-03
  -.266326761441E-03  -.274536606189E-03  -.282998359305E-03  -.291719676517E-03  -.300708441557E-03
  -.309972772656E-03  -.319521029201E-03  -.329361818567E-03  -.339504003113E-03  -.349956707359E-03
  -.360729325339E-03  -.371831528128E-03  -.383273271562E-03  -.395064804132E-03  -.407216675073E-03
  -.419739742641E-03  -.432645182581E-03  -.445944496789E-03  -.459649522169E-03  -.473772439687E-03
  -.488325783630E-03  -.503322451051E-03  -.518775711430E-03  -.534699216525E-03  -.551107010426E-03
  -.568013539818E-03  -.585433664431E-03  -.603382667704E-03  -.621876267634E-03  -.640930627833E-03
  -.660562368767E-03  -.680788579195E-03  -.701626827793E-03  -.723095174954E-03  -.745212184772E-03
  -.767996937198E-03  -.791469040354E-03  -.815648643010E-03  -.840556447203E-03  -.866213721001E-03
  -.892642311389E-03  -.919864657269E-03  -.947903802565E-03  -.976783409411E-03  -.100652777141E-02
  -.103716182694E-02  -.106871117250E-02  -.110120207607E-02  -.113466149040E-02  -.116911706637E-02
  -.120459716617E-02  -.124113087644E-02  -.127874802127E-02  -.131747917501E-02  -.135735567488E-02
  -.139840963337E-02  -.144067395027E-02  -.148418232442E-02  -.152896926501E-02  -.157507010248E-02
  -.162252099886E-02  -.167135895753E-02  -.172162183238E-02  -.177334833617E-02  -.182657804812E-02
  -.188135142062E-02  -.193770978492E-02  -.199569535573E-02  -.205535123470E-02  -.211672141248E-02
  -.217985076946E-02  -.224478507488E-02  -.231157098432E-02  -.238025603528E-02  -.245088864086E-02
  -.252351808119E-02  -.259819449261E-02  -.267496885429E-02  -.275389297217E-02  -.283501945998E-02
  -.291840171708E-02  -.300409390297E-02  -.309215090817E-02  -.318262832124E-02  -.327558239157E-02
  -.337106998778E-02  -.346914855138E-02  -.356987604524E-02  -.367331089677E-02  -.377951193516E-02
  -.388853832260E-02  -.400044947881E-02  -.411530499863E-02  -.423316456214E-02  -.435408783697E-02
  -.447813437207E-02  -.460536348276E-02  -.473583412622E-02  -.486960476702E-02  -.500673323218E-02
  -.514727655491E-02  -.529129080665E-02  -.543883091657E-02  -.558995047800E-02  -.574470154092E-02
  -.590313438987E-02  -.606529730653E-02  -.623123631611E-02  -.640099491677E-02  -.657461379124E-02
  -.675213049979E-02  -.693357915358E-02  -.711899006763E-02  -.730838939228E-02  -.750179872245E-02
  -.769923468346E-02  -.790070849270E-02  -.810622549597E-02  -.831578467760E-02  -.852937814338E-02
  -.874699057524E-02  -.896859865676E-02  -.919417046853E-02  -.942366485247E-02  -.965703074412E-02
  -.989420647213E-02  -.101351190240E-01  -.103796832776E-01  -.106278011971E-01  -.108793609939E-01
  -.111342362507E-01  -.113922850092E-01  -.116533488208E-01  -.119172517605E-01  -.121837994037E-01
  -.124527777658E-01  -.127239522065E-01  -.129970662976E-01  -.132718406561E-01  -.135479717448E-01
  -.138251306395E-01  -.141029617675E-01  -.143810816174E-01  -.146590774244E-01  -.149365058337E-01
  -.152128915449E-01  -.154877259436E-01  -.157604657230E-01  -.160305315018E-01  -.162973064446E-01
  -.165601348920E-01  -.168183210067E-01  -.170711274464E-01  -.173177740706E-01  -.175574366933E-01
  -.177892458935E-01  -.180122858940E-01  -.182255935250E-01  -.184281572858E-01  -.186189165218E-01
  -.187967607349E-01  -.189605290465E-01  -.191090098337E-01  -.192409405620E-01  -.193550078400E-01
  -.194498477191E-01  -.195240462713E-01  -.195761404705E-01  -.196046194138E-01  -.196079259150E-01
  -.195844585071E-01  -.195325738956E-01  -.194505898999E-01  -.193367889311E-01  -.191894220497E-01
  -.190067136528E-01  -.187868668432E-01  -.185280695320E-01  -.182285013331E-01  -.178863413056E-01
  -.174997766060E-01  -.170670121108E-01  -.165862810746E-01  -.160558568871E-01  -.154740659960E-01
  -.148393020603E-01  -.141500414011E-01  -.134048598147E-01  -.126024508112E-01  -.117416453405E-01
  -.108214330651E-01  -.984098523443E-02  -.879967921215E-02  -.769712470357E-02  -.653319172454E-02
  -.530804034818E-02  -.402215226051E-02  -.267636415028E-02  -.127190295294E-02   .189577036845E-03
   .170595517641E-02   .327460360998E-02   .489234453840E-02   .655540565163E-02   .825937377700E-02
   .999914683509E-02   .117688842523E-01   .135619560639E-01   .153708910600E-01   .171873244954E-01
   .190019461006E-01   .208044494041E-01   .225834836440E-01   .243266097053E-01   .260202612761E-01
   .276497113365E-01   .291990416525E-01   .306511090152E-01   .319874976759E-01   .331884458190E-01
   .342327390239E-01   .350975771110E-01   .357584379706E-01   .361889726067E-01   .363609597453E-01
   .362443252137E-01   .358072040621E-01   .350160110352E-01   .338354941862E-01   .322287655203E-01
   .301573162355E-01   .275810273720E-01   .244581834381E-01   .207454919725E-01   .163981085274E-01
   .113696645545E-01   .561229480389E-02  -.923339411683E-03  -.828803470968E-02  -.165340414114E-01
  -.257150741010E-01  -.358863405838E-01  -.471045931267E-01  -.594282062717E-01  -.729172860652E-01
  -.876338162163E-01  -.103641847499E+00  -.121007737659E+00  -.139800450182E+00  -.160091921596E+00
  -.181957508501E+00  -.205476527333E+00  -.230732902009E+00  -.257815937118E+00  -.286821237265E+00
  -.317851796637E+00  -.351019286889E+00
 pseudo wavefunction
   .752962849494E-08   .800378380950E-08   .850779760403E-08   .904355012493E-08   .961304002135E-08
   .102183918013E-07   .108618637570E-07   .115458563900E-07   .122729213658E-07   .130457710335E-07
   .138672885438E-07   .147405386052E-07   .156687789167E-07   .166554723209E-07   .177042997225E-07
   .188191738197E-07   .200042537009E-07   .212639603606E-07   .226029931915E-07   .240263475165E-07
   .255393332233E-07   .271475945739E-07   .288571312602E-07   .306743207862E-07   .326059422599E-07
   .346592016826E-07   .368417588318E-07   .391617558355E-07   .416278475477E-07   .442492338350E-07
   .470356938975E-07   .499976227504E-07   .531460700032E-07   .564927810803E-07   .600502410384E-07
   .638317211424E-07   .678513283742E-07   .721240580595E-07   .766658498087E-07   .814936469801E-07
   .866254598878E-07   .920804329903E-07   .978789163093E-07   .104042541346E-06   .110594301781E-06
   .117558639247E-06   .124961534518E-06   .132830604423E-06   .141195204878E-06   .150086540398E-06
   .159537780503E-06   .169584183463E-06   .180263227829E-06   .191614752248E-06   .203681104080E-06
   .216507297382E-06   .230141180831E-06   .244633616223E-06   .260038668222E-06   .276413806045E-06
   .293820117852E-06   .312322538643E-06   .331990092494E-06   .352896150061E-06   .375118702284E-06
   .398740651339E-06   .423850119911E-06   .450540779929E-06   .478912202021E-06   .509070226962E-06
   .541127360516E-06   .575203193140E-06   .611424846125E-06   .649927445821E-06   .690854627730E-06
   .734359072343E-06   .780603074718E-06   .829759149925E-06   .882010676615E-06   .937552581122E-06
   .996592064635E-06   .105934937617E-05   .112605863420E-05   .119696870005E-05   .127234410628E-05
   .135246604351E-05   .143763340941E-05   .152816392374E-05   .162439531360E-05   .172668657333E-05
   .183541930371E-05   .195099913557E-05   .207385724293E-05   .220445195151E-05   .234327044852E-05
   .249083060010E-05   .264768288317E-05   .281441243900E-05   .299164125605E-05   .318003049024E-05
   .338028293142E-05   .359314562503E-05   .381941265892E-05   .405992812567E-05   .431558927138E-05
   .458734984277E-05   .487622364507E-05   .518328832389E-05   .550968938529E-05   .585664446892E-05
   .622544789026E-05   .661747546894E-05   .703418966094E-05   .747714501410E-05   .794799396706E-05
   .844849301337E-05   .898050925371E-05   .954602736069E-05   .101471569822E-04   .107861406109E-04
   .114653619492E-04   .121873548010E-04   .129548125231E-04   .137705980721E-04   .146377546832E-04
   .155595172221E-04   .165393242513E-04   .175808308560E-04   .186879222776E-04   .198647284056E-04
   .211156391818E-04   .224453209747E-04   .238587339841E-04   .253611507419E-04   .269581757775E-04
   .286557665213E-04   .304602555238E-04   .323783740737E-04   .344172773031E-04   .365845708721E-04
   .388883393339E-04   .413371762851E-04   .439402164139E-04   .467071695654E-04   .496483569506E-04
   .527747496351E-04   .560980094497E-04   .596305324753E-04   .633854952653E-04   .673769039757E-04
   .716196465876E-04   .761295484152E-04   .809234311067E-04   .860191753568E-04   .914357875658E-04
   .971934706909E-04   .103313699555E-03   .109819300894E-03   .116734538435E-03   .124085203330E-03
   .131898710274E-03   .140204199667E-03   .149032646202E-03   .158416974276E-03   .168392180663E-03
   .178995464887E-03   .190266367804E-03   .202246918876E-03   .214981792713E-03   .228518475445E-03
   .242907441539E-03   .258202341731E-03   .274460202753E-03   .291741639604E-03   .310111081142E-03
   .329637009839E-03   .350392216575E-03   .372454071420E-03   .395904811398E-03   .420831846295E-03
   .447328083635E-03   .475492274024E-03   .505429378130E-03   .537250956638E-03   .571075584631E-03
   .607029291898E-03   .645246030781E-03   .685868173292E-03   .729047039286E-03   .774943457647E-03
   .823728362502E-03   .875583426652E-03   .930701734520E-03   .989288497028E-03   .105156181103E-02
   .111775346601E-02   .118810980096E-02   .126289261453E-02   .134238013171E-02   .142686803046E-02
   .151667053205E-02   .161212155885E-02   .171357596382E-02   .182141083589E-02   .193602688603E-02
   .205784991863E-02   .218733239350E-02   .232495508390E-02   .247122883631E-02   .262669643795E-02
   .279193459857E-02   .296755605321E-02   .315421179296E-02   .335259343139E-02   .356343571443E-02
   .378751918209E-02   .402567299071E-02   .427877790498E-02   .454776946944E-02   .483364136951E-02
   .513744899269E-02   .546031320115E-02   .580342432722E-02   .616804640409E-02   .655552164419E-02
   .696727517872E-02   .740482007182E-02   .786976262382E-02   .836380797821E-02   .888876604762E-02
   .944655777455E-02   .100392217429E-01   .106689211572E-01   .113379512054E-01   .120487468240E-01
   .128038908815E-01   .136061227976E-01   .144583476164E-01   .153636455503E-01   .163252820110E-01
   .173467181450E-01   .184316218873E-01   .195838795501E-01   .208076079573E-01   .221071671380E-01
   .234871735866E-01   .249525140974E-01   .265083601762E-01   .281601830290E-01   .299137691223E-01
   .317752363052E-01   .337510504763E-01   .358480427721E-01   .380734272434E-01   .404348189791E-01
   .429402526213E-01   .455982012083E-01   .484175952612E-01   .514078420169E-01   .545788446896E-01
   .579410216205E-01   .615053251516E-01   .652832600301E-01   .692869011200E-01   .735289101605E-01
   .780225512728E-01   .827817048703E-01   .878208795808E-01   .931552217322E-01   .988005218952E-01
   .104773217906E+00   .111090393723E+00   .117769773392E+00   .124829709298E+00   .132289163800E+00
   .140167683236E+00   .148485363176E+00   .157262803684E+00   .166521053231E+00   .176281539773E+00
   .186565987354E+00   .197396316506E+00   .208794526515E+00   .220782557550E+00   .233382130485E+00
   .246614562130E+00   .260500553521E+00   .275059948784E+00   .290311462107E+00   .306272370309E+00
   .322958168582E+00   .340382187095E+00   .358555166379E+00   .377484789739E+00   .397175171407E+00
   .417626299759E+00   .438833435755E+00   .460786467780E+00   .483469225366E+00   .506858755849E+00
   .530924569958E+00   .555627864597E+00   .580920733798E+00   .606745381926E+00   .633033356825E+00
   .659704824618E+00   .686667912352E+00   .713818149588E+00   .741038045207E+00   .768196841104E+00
   .795150489813E+00   .821741908171E+00   .847801563580E+00   .873148452661E+00   .897591533610E+00
   .920931672497E+00   .942964159203E+00   .963481839520E+00   .982278894877E+00   .999155278756E+00
   .101392178757E+01   .102640570207E+01   .103645688164E+01   .104395412710E+01   .104881154724E+01
   .105098456981E+01   .105047513218E+01   .104733547152E+01   .104166981715E+01   .103363317636E+01
   .102342631295E+01   .101128596290E+01   .997469337037E+00   .982232053788E+00   .965798861574E+00
   .948326885166E+00   .929857739347E+00
 ae wavefunction
   .638386667376E-07   .677120719962E-07   .717878148162E-07   .760781692450E-07   .805960852755E-07
   .853552309281E-07   .903700368932E-07   .956557437996E-07   .101228452275E-06   .107105175975E-06
   .113303897768E-06   .119843629279E-06   .126744473999E-06   .134027694187E-06   .141715781809E-06
   .149832533758E-06   .158403131636E-06   .167454226371E-06   .177014027992E-06   .187112400866E-06
   .197780964760E-06   .209053202074E-06   .220964571654E-06   .233552629579E-06   .246857157378E-06
   .260920298125E-06   .275786700924E-06   .291503674301E-06   .308121349062E-06   .325692851214E-06
   .344274485579E-06   .363925930776E-06   .384710446267E-06   .406695092253E-06   .429950963189E-06
   .454553435806E-06   .480582432520E-06   .508122701213E-06   .537264112393E-06   .568101974841E-06
   .600737370883E-06   .635277512523E-06   .671836119748E-06   .710533822382E-06   .751498586969E-06
   .794866170246E-06   .840780600873E-06   .889394691184E-06   .940870580833E-06   .995380314344E-06
   .105310645465E-05   .111424273492E-05   .117899475101E-05   .124758069715E-05   .132023214744E-05
   .139719488621E-05   .147872979008E-05   .156511376512E-05   .165664074249E-05   .175362273610E-05
   .185639096640E-05   .196529705422E-05   .208071428910E-05   .220303897678E-05   .233269187073E-05
   .247011969307E-05   .261579675027E-05   .277022664977E-05   .293394412359E-05   .310751696575E-05
   .329154809048E-05   .348667771889E-05   .369358570193E-05   .391299398818E-05   .414566924562E-05
   .439242564673E-05   .465412782724E-05   .493169402933E-05   .522609944062E-05   .553837974126E-05
   .586963487198E-05   .622103303687E-05   .659381495531E-05   .698929837885E-05   .740888288904E-05
   .785405499401E-05   .832639354216E-05   .882757547256E-05   .935938192307E-05   .992370471820E-05
   .105225532603E-04   .111580618490E-04   .118324974554E-04   .125482679788E-04   .133079310169E-04
   .141142031792E-04   .149699699792E-04   .158782963398E-04   .168424377503E-04   .178658521140E-04
   .189522123315E-04   .201054196616E-04   .213296179102E-04   .226292084970E-04   .240088664536E-04
   .254735574115E-04   .270285556389E-04   .286794631912E-04   .304322302449E-04   .322931766840E-04
   .342690150189E-04   .363668747166E-04   .385943280294E-04   .409594174132E-04   .434706846320E-04
   .461372016512E-04   .489686034280E-04   .519751227146E-04   .551676269955E-04   .585576576880E-04
   .621574717438E-04   .659800857943E-04   .700393229956E-04   .743498627336E-04   .789272933620E-04
   .837881681551E-04   .889500646678E-04   .944316477064E-04   .100252736127E-03   .106434373689E-03
   .112998904200E-03   .119970051221E-03   .127373002584E-03   .135234500022E-03   .143582934202E-03
   .152448445488E-03   .161863030762E-03   .171860656675E-03   .182477379676E-03   .193751473245E-03
   .205723562729E-03   .218436768227E-03   .231936856004E-03   .246272398895E-03   .261494946258E-03
   .277659203982E-03   .294823225160E-03   .313048612011E-03   .332400729706E-03   .352948932759E-03
   .374766804705E-03   .397932411798E-03   .422528571522E-03   .448643136741E-03   .476369296349E-03
   .505805893338E-03   .537057761236E-03   .570236079922E-03   .605458751875E-03   .642850799952E-03
   .682544787871E-03   .724681264595E-03   .769409233900E-03   .816886650448E-03   .867280943766E-03
   .920769571575E-03   .977540603989E-03   .103779334017E-02   .110173895909E-02   .116960120612E-02
   .124161711723E-02   .131803778267E-02   .139912915210E-02   .148517288306E-02   .157646723507E-02
   .167332801131E-02   .177608955018E-02   .188510576920E-02   .200075126331E-02   .212342246037E-02
   .225353883612E-02   .239154419130E-02   .253790799365E-02   .269312678730E-02   .285772567255E-02
   .303225985866E-02   .321731629273E-02   .341351536733E-02   .362151270999E-02   .384200105741E-02
   .407571221735E-02   .432341912122E-02   .458593797008E-02   .486413047725E-02   .515890621002E-02
   .547122503343E-02   .580209965875E-02   .615259829894E-02   .652384743386E-02   .691703468697E-02
   .733341181578E-02   .777429781760E-02   .824108215208E-02   .873522808145E-02   .925827612928E-02
   .981184765789E-02   .103976485641E-01   .110174730928E-01   .116732077659E-01   .123668354262E-01
   .131004393914E-01   .138762077157E-01   .146964375537E-01   .155635396211E-01   .164800427450E-01
   .174485984965E-01   .184719858945E-01   .195531161717E-01   .206950375890E-01   .219009402849E-01
   .231741611430E-01   .245181886607E-01   .259366677978E-01   .274334047841E-01   .290123718602E-01
   .306777119238E-01   .324337430530E-01   .342849628725E-01   .362360527272E-01   .382918816234E-01
   .404575098967E-01   .427381925586E-01   .451393822735E-01   .476667319122E-01   .503260966243E-01
   .531235353679E-01   .560653118313E-01   .591578946758E-01   .624079570260E-01   .658223751276E-01
   .694082260906E-01   .731727846277E-01   .771235186983E-01   .812680839588E-01   .856143169185E-01
   .901702266971E-01   .949439852730E-01   .999439161104E-01   .105178481049E+00   .110656265340E+00
   .116385960702E+00   .122376346281E+00   .128636267393E+00   .135174611916E+00   .142000284232E+00
   .149122176577E+00   .156549137709E+00   .164289938775E+00   .172353236286E+00   .180747532104E+00
   .189481130385E+00   .198562091398E+00   .207998182192E+00   .217796824093E+00   .227965037026E+00
   .238509380698E+00   .249435892702E+00   .260750023621E+00   .272456569271E+00   .284559600216E+00
   .297062388746E+00   .309967333537E+00   .323275882213E+00   .336988452081E+00   .351104349291E+00
   .365621686691E+00   .380537300641E+00   .395846667028E+00   .411543816721E+00   .427621250673E+00
   .444069854932E+00   .460878815830E+00   .478035535801E+00   .495525550466E+00   .513332448110E+00
   .531437793276E+00   .549821057247E+00   .568459559656E+00   .587328427601E+00   .606400581552E+00
   .625646761242E+00   .645035609268E+00   .664533834316E+00   .684106476974E+00   .703717293083E+00
   .723329243608E+00   .742905026222E+00   .762407502025E+00   .781799786725E+00   .801044752505E+00
   .820103803160E+00   .838935065448E+00   .857491485850E+00   .875719528735E+00   .893559046860E+00
   .910944422795E+00   .927806518361E+00   .944074703498E+00   .959678416184E+00   .974548104615E+00
   .988615703182E+00   .100181487992E+01   .101408123971E+01   .102535257998E+01   .103556922786E+01
   .104467444950E+01   .105261490576E+01   .105934112503E+01   .106480796684E+01   .106897505609E+01
   .107180717351E+01   .107327459381E+01   .107335336666E+01   .107202553894E+01   .106927931812E+01
   .106510917804E+01   .105951590919E+01   .105250661580E+01   .104409466290E+01   .103429957658E+01
   .102314690122E+01   .101066801785E+01   .996899927778E+00   .981885006015E+00   .965670728910E+00
   .948309380191E+00   .929857739347E+00
 pseudo wavefunction
   .220510726003E-08   .234396714184E-08   .249157129973E-08   .264847037770E-08   .281524969489E-08
   .299253142912E-08   .318097693794E-08   .338128922588E-08   .359421556701E-08   .382055029271E-08
   .406113775494E-08   .431687547612E-08   .458871749742E-08   .487767793782E-08   .518483477731E-08
   .551133387839E-08   .585839326073E-08   .622730764505E-08   .661945328313E-08   .703629309200E-08
   .747938211139E-08   .795037330487E-08   .845102372634E-08   .898320107475E-08   .954889066168E-08
   .101502028176E-07   .107893807645E-07   .114688089845E-07   .121910221150E-07   .129587144045E-07
   .137747497635E-07   .146421724485E-07   .155642184184E-07   .165443274070E-07   .175861557546E-07
   .186935900482E-07   .198707616207E-07   .211220619629E-07   .224521591061E-07   .238660150366E-07
   .253689042064E-07   .269664332098E-07   .286645616989E-07   .304696246166E-07   .323883558291E-07
   .344279132469E-07   .365959055278E-07   .389004204610E-07   .413500551392E-07   .439539480303E-07
   .467218130685E-07   .496639758928E-07   .527914123670E-07   .561157895256E-07   .596495090982E-07
   .634057537739E-07   .673985363808E-07   .716427521603E-07   .761542343347E-07   .809498131736E-07
   .860473787793E-07   .914659478266E-07   .972257345048E-07   .103348225928E-06   .109856262290E-06
   .116774122077E-06   .124127612632E-06   .131944166431E-06   .140252943424E-06   .149084939813E-06
   .158473103685E-06   .168452457925E-06   .179060230869E-06   .190335995185E-06   .202321815498E-06
   .215062405314E-06   .228605293820E-06   .243001003196E-06   .258303237085E-06   .274569080933E-06
   .291859214946E-06   .310238140460E-06   .329774420555E-06   .350540935831E-06   .372615156290E-06
   .396079430329E-06   .421021291941E-06   .447533787255E-06   .475715821638E-06   .505672528661E-06
   .537515662286E-06   .571364013758E-06   .607343854751E-06   .645589408404E-06   .686243350034E-06
   .729457339371E-06   .775392586301E-06   .824220452246E-06   .876123089399E-06   .931294120217E-06
   .989939359700E-06   .105227758314E-05   .111854134224E-05   .118897783258E-05   .126384981572E-05
   .134343659941E-05   .142803507943E-05   .151796084710E-05   .161354936651E-05   .171515722584E-05
   .182316346750E-05   .193797100205E-05   .206000811101E-05   .218973004449E-05   .232762071924E-05
   .247419452368E-05   .262999823655E-05   .279561306643E-05   .297165681954E-05   .315878620412E-05
   .335769927981E-05   .356913806133E-05   .379389128594E-05   .403279735525E-05   .428674746213E-05
   .455668891448E-05   .484362866829E-05   .514863708299E-05   .547285191328E-05   .581748255219E-05
   .618381454116E-05   .657321436410E-05   .698713454305E-05   .742711905465E-05   .789480908748E-05
   .839194916163E-05   .892039363349E-05   .948211360980E-05   .100792042968E-04   .107138928117E-04
   .113885464859E-04   .121056816902E-04   .128679732154E-04   .136782642435E-04   .145395769448E-04
   .154551237435E-04   .164283192895E-04   .174627931856E-04   .185624035128E-04   .197312512075E-04
   .209736953421E-04   .222943693661E-04   .236981983688E-04   .251904174259E-04   .267765911001E-04
   .284626341667E-04   .302548336411E-04   .321598721905E-04   .341848530158E-04   .363373262963E-04
   .386253172944E-04   .410573562252E-04   .436425100008E-04   .463904159659E-04   .493113177508E-04
   .524161033729E-04   .557163457273E-04   .592243456159E-04   .629531774733E-04   .669167379579E-04
   .711297975857E-04   .756080555980E-04   .803681982623E-04   .854279608221E-04   .908061933196E-04
   .965229305343E-04   .102599466291E-03   .109058432410E-03   .115923882582E-03   .123221381479E-03
   .130978099420E-03   .139222912934E-03   .147986511589E-03   .157301511458E-03   .167202575652E-03
   .177726542333E-03   .188912560676E-03   .200802235257E-03   .213439779394E-03   .226872177969E-03
   .241149360323E-03   .256324383817E-03   .272453628720E-03   .289597005090E-03   .307818172383E-03
   .327184772542E-03   .347768677368E-03   .369646251032E-03   .392898628619E-03   .417612011640E-03
   .443877981522E-03   .471793832121E-03   .501462922350E-03   .532995050108E-03   .566506848703E-03
   .602122207080E-03   .639972715179E-03   .680198135845E-03   .722946904766E-03   .768376659988E-03
   .816654802617E-03   .867959090402E-03   .922478265944E-03   .980412721369E-03   .104197520135E-02
   .110739154646E-02   .117690147884E-02   .125075943232E-02   .132923542916E-02   .141261600551E-02
   .150120518793E-02   .159532552324E-02   .169531916395E-02   .180154901165E-02   .191439992059E-02
   .203427996383E-02   .216162176413E-02   .229688389172E-02   .244055233108E-02   .259314201851E-02
   .275519845236E-02   .292729937728E-02   .311005654364E-02   .330411754306E-02   .351016772027E-02
   .372893216124E-02   .396117775669E-02   .420771533949E-02   .446940189342E-02   .474714282991E-02
   .504189432797E-02   .535466573127E-02   .568652199462E-02   .603858617020E-02   .641204192184E-02
   .680813605302E-02   .722818103151E-02   .767355749028E-02   .814571668061E-02   .864618284913E-02
   .917655550567E-02   .973851154343E-02   .103338071668E-01   .109642795754E-01   .116318483444E-01
   .123385164336E-01   .130863707472E-01   .138775821536E-01   .147144048664E-01   .155991750686E-01
   .165343086507E-01   .175222979146E-01   .185657070761E-01   .196671663784E-01   .208293646057E-01
   .220550397596E-01   .233469676356E-01   .247079480019E-01   .261407880547E-01   .276482827843E-01
   .292331918489E-01   .308982125097E-01   .326459481392E-01   .344788717627E-01   .363992840476E-01
   .384092650983E-01   .405106193650E-01   .427048129169E-01   .449929022760E-01   .473754539542E-01
   .498524537863E-01   .524232051000E-01   .550862147310E-01   .578390658537E-01   .606782765856E-01
   .635991433185E-01   .665955677558E-01   .696598666785E-01   .727825635484E-01   .759521611798E-01
   .791548948835E-01   .823744657204E-01   .855917538030E-01   .887845119637E-01   .919270405844E-01
   .949898449578E-01   .979392772425E-01   .100737165893E+00   .103340436400E+00   .105700728264E+00
   .107764014369E+00   .109470230293E+00   .110752922566E+00   .111538926523E+00   .111748085992E+00
   .111293028748E+00   .110079013189E+00   .108003863095E+00   .104958008324E+00   .100824649867E+00
   .954800674807E-01   .887940869666E-01   .806307217945E-01   .708489998265E-01   .593039801334E-01
   .458479569870E-01   .303318378497E-01   .126066694681E-01  -.747472889487E-02  -.300560830704E-01
  -.552760085309E-01  -.832664757191E-01  -.114151505139E+00  -.148046210450E+00  -.185056306696E+00
  -.225278183433E+00  -.268799601434E+00  -.315700997901E+00  -.366057268444E+00  -.419939723556E+00
  -.477417682425E+00  -.538558859393E+00  -.603427314804E+00  -.672077287878E+00  -.744540723763E+00
  -.820805789414E+00  -.900776501472E+00
 ae wavefunction
   .214439324468E-07   .227450538540E-07   .241141425464E-07   .255553215359E-07   .270729408934E-07
   .286715918845E-07   .303561219660E-07   .321316506638E-07   .340035863888E-07   .359776442506E-07
   .380598649309E-07   .402566346844E-07   .425747065390E-07   .450212227694E-07   .476037387257E-07
   .503302481017E-07   .532092097343E-07   .562495760287E-07   .594608231140E-07   .628529828359E-07
   .664366767039E-07   .702231519137E-07   .742243195777E-07   .784527953005E-07   .829219422474E-07
   .876459168625E-07   .926397174026E-07   .979192354641E-07   .103501310689E-06   .109403788854E-06
   .115645583547E-06   .122246741665E-06   .129228512966E-06   .136613423932E-06   .144425356216E-06
   .152689629950E-06   .161433092233E-06   .170684211113E-06   .180473175406E-06   .190832000729E-06
   .201794642122E-06   .213397113679E-06   .225677615626E-06   .238676669314E-06   .252437260609E-06
   .267004992228E-06   .282428245553E-06   .298758352543E-06   .316049778347E-06   .334360315319E-06
   .353751289108E-06   .374287777622E-06   .396038843636E-06   .419077781907E-06   .443482381714E-06
   .469335205763E-06   .496723886508E-06   .525741440943E-06   .556486605049E-06   .589064189100E-06
   .623585455143E-06   .660168518030E-06   .698938771473E-06   .740029340684E-06   .783581563255E-06
   .829745500044E-06   .878680477931E-06   .930555666438E-06   .985550690318E-06   .104385628036E-05
   .110567496478E-05   .117122180374E-05   .124072516967E-05   .131442757625E-05   .139258655907E-05
   .147547561121E-05   .156338517713E-05   .165662370847E-05   .175551878572E-05   .186041830969E-05
   .197169176730E-05   .208973157610E-05   .221495451260E-05   .234780322953E-05   .248874786749E-05
   .263828776697E-05   .279695328683E-05   .296530773601E-05   .314394942522E-05   .333351384636E-05
   .353467598730E-05   .374815279061E-05   .397470576490E-05   .421514375848E-05   .447032590518E-05
   .474116475297E-05   .502862958673E-05   .533374995717E-05   .565761942839E-05   .600139955791E-05
   .636632412310E-05   .675370360942E-05   .716492997652E-05   .760148171913E-05   .806492924106E-05
   .855694056130E-05   .907928737274E-05   .963385147499E-05   .102226316042E-04   .108477506844E-04
   .115114635256E-04   .122161649961E-04   .129643986989E-04   .137588661807E-04   .146024367084E-04
   .154981576454E-04   .164492654665E-04   .174591974469E-04   .185316040699E-04   .196703621932E-04
   .208795890225E-04   .221636569392E-04   .235272092347E-04   .249751768050E-04   .265127958644E-04
   .281456267386E-04   .298795738018E-04   .317209066269E-04   .336762824202E-04   .357527698187E-04
   .379578741288E-04   .402995640943E-04   .427863002831E-04   .454270651878E-04   .482313951430E-04
   .512094141643E-04   .543718698245E-04   .577301712826E-04   .612964295958E-04   .650835004444E-04
   .691050294115E-04   .733754999652E-04   .779102843005E-04   .827256972036E-04   .878390531163E-04
   .932687265796E-04   .990342162528E-04   .105156212710E-03   .111656670231E-03   .118558882805E-03
   .125887564598E-03   .133668935117E-03   .141930809350E-03   .150702693148E-03   .160015884140E-03
   .169903578489E-03   .180400983817E-03   .191545438610E-03   .203376538487E-03   .215936269682E-03
   .229269150132E-03   .243422378573E-03   .258445992080E-03   .274393032481E-03   .291319722113E-03
   .309285649411E-03   .328353964828E-03   .348591587618E-03   .370069424026E-03   .392862597465E-03
   .417050691270E-03   .442718004648E-03   .469953822468E-03   .498852699551E-03   .529514760160E-03
   .562046013391E-03   .596558685214E-03   .633171567909E-03   .672010387694E-03   .713208191344E-03
   .756905752623E-03   .803251999378E-03   .852404462168E-03   .904529745287E-03   .959804021106E-03
   .101841354862E-02   .108055521714E-02   .114643711603E-02   .121627913145E-02   .129031357097E-02
   .136878581715E-02   .145195501068E-02   .154009476437E-02   .163349390850E-02   .173245726865E-02
   .183730647660E-02   .194838081521E-02   .206603809788E-02   .219065558326E-02   .232263092570E-02
   .246238316195E-02   .261035373437E-02   .276700755094E-02   .293283408200E-02   .310834849374E-02
   .329409281805E-02   .349063715825E-02   .369858092996E-02   .391855413602E-02   .415121867429E-02
   .439726967653E-02   .465743687645E-02   .493248600457E-02   .522322020686E-02   .553048148404E-02
   .585515214761E-02   .619815628810E-02   .656046125054E-02   .694307911142E-02   .734706815053E-02
   .777353431052E-02   .822363263580E-02   .869856868174E-02   .919959988409E-02   .972803687712E-02
   .102852447482E-01   .108726442153E-01   .114917127113E-01   .121439853606E-01   .128310558276E-01
   .135545770185E-01   .143162616155E-01   .151178824187E-01   .159612724706E-01   .168483249369E-01
   .177809927124E-01   .187612877206E-01   .197912798728E-01   .208730956493E-01   .220089162627E-01
   .232009753609E-01   .244515562249E-01   .257629884113E-01   .271376437897E-01   .285779319179E-01
   .300862946983E-01   .316652002526E-01   .333171359502E-01   .350446005212E-01   .368500951812E-01
   .387361136932E-01   .407051312866E-01   .427595923495E-01   .449018968114E-01   .471343851229E-01
   .494593217451E-01   .518788770501E-01   .543951075386E-01   .570099342762E-01   .597251194464E-01
   .625422409228E-01   .654626647589E-01   .684875154961E-01   .716176441914E-01   .748535940699E-01
   .781955637092E-01   .816433676648E-01   .851963944552E-01   .888535618226E-01   .926132691984E-01
   .964733472999E-01   .100431004795E+00   .104482771969E+00   .108624441341E+00   .112851005159E+00
   .117156589719E+00   .121534386451E+00   .125976579684E+00   .130474271047E+00   .135017400422E+00
   .139594663400E+00   .144193425222E+00   .148799631235E+00   .153397713984E+00   .157970497238E+00
   .162499097421E+00   .166962823315E+00   .171339075291E+00   .175603245994E+00   .179728625222E+00
   .183686312757E+00   .187445144036E+00   .190971634403E+00   .194229947418E+00   .197181889733E+00
   .199786927052E+00   .202002200592E+00   .203782502383E+00   .205080149019E+00   .205844694814E+00
   .206022465227E+00   .205555970546E+00   .204383344904E+00   .202437991072E+00   .199648555399E+00
   .195939222511E+00   .191230184790E+00   .185438099866E+00   .178476417697E+00   .170255565060E+00
   .160683042132E+00   .149663496034E+00   .137098815911E+00   .122888270227E+00   .106928691054E+00
   .891147026474E-01   .693389897809E-01   .474926025024E-01   .234652964071E-01  -.285408970561E-02
  -.315772144015E-01  -.628157659007E-01  -.966809378721E-01  -.133282839129E+00  -.172729826433E+00
  -.215127748539E+00  -.260579088603E+00  -.309181991105E+00  -.361029158548E+00  -.416206602397E+00
  -.474792232115E+00  -.536854265697E+00  -.602449445015E+00  -.671621039432E+00  -.744396621747E+00
  -.820785601421E+00  -.900776501472E+00
 End of Dataset
